*HEADING
 CFRTP mixed-mode interlaminar delamination (2D plane strain)
 built-in cohesive (COH2D4) + Benzeggagh-Kenane. Generated by gen_inp.py.
**
*NODE, NSET=NALL
 1, 0.000000e+00, 0.000000e+00
 2, 1.000000e-03, 0.000000e+00
 3, 2.000000e-03, 0.000000e+00
 4, 3.000000e-03, 0.000000e+00
 5, 4.000000e-03, 0.000000e+00
 6, 5.000000e-03, 0.000000e+00
 7, 6.000000e-03, 0.000000e+00
 8, 7.000000e-03, 0.000000e+00
 9, 8.000000e-03, 0.000000e+00
 10, 9.000000e-03, 0.000000e+00
 11, 1.000000e-02, 0.000000e+00
 12, 1.100000e-02, 0.000000e+00
 13, 1.200000e-02, 0.000000e+00
 14, 1.300000e-02, 0.000000e+00
 15, 1.400000e-02, 0.000000e+00
 16, 1.500000e-02, 0.000000e+00
 17, 1.600000e-02, 0.000000e+00
 18, 1.700000e-02, 0.000000e+00
 19, 1.800000e-02, 0.000000e+00
 20, 1.900000e-02, 0.000000e+00
 21, 2.000000e-02, 0.000000e+00
 22, 2.100000e-02, 0.000000e+00
 23, 2.200000e-02, 0.000000e+00
 24, 2.300000e-02, 0.000000e+00
 25, 2.400000e-02, 0.000000e+00
 26, 2.500000e-02, 0.000000e+00
 27, 2.600000e-02, 0.000000e+00
 28, 2.700000e-02, 0.000000e+00
 29, 2.800000e-02, 0.000000e+00
 30, 2.900000e-02, 0.000000e+00
 31, 3.000000e-02, 0.000000e+00
 32, 3.100000e-02, 0.000000e+00
 33, 3.200000e-02, 0.000000e+00
 34, 3.300000e-02, 0.000000e+00
 35, 3.400000e-02, 0.000000e+00
 36, 3.500000e-02, 0.000000e+00
 37, 3.600000e-02, 0.000000e+00
 38, 3.700000e-02, 0.000000e+00
 39, 3.800000e-02, 0.000000e+00
 40, 3.900000e-02, 0.000000e+00
 41, 4.000000e-02, 0.000000e+00
 42, 4.100000e-02, 0.000000e+00
 43, 4.200000e-02, 0.000000e+00
 44, 4.300000e-02, 0.000000e+00
 45, 4.400000e-02, 0.000000e+00
 46, 4.500000e-02, 0.000000e+00
 47, 4.600000e-02, 0.000000e+00
 48, 4.700000e-02, 0.000000e+00
 49, 4.800000e-02, 0.000000e+00
 50, 4.900000e-02, 0.000000e+00
 51, 5.000000e-02, 0.000000e+00
 52, 5.100000e-02, 0.000000e+00
 53, 5.200000e-02, 0.000000e+00
 54, 5.300000e-02, 0.000000e+00
 55, 5.400000e-02, 0.000000e+00
 56, 5.500000e-02, 0.000000e+00
 57, 5.600000e-02, 0.000000e+00
 58, 5.700000e-02, 0.000000e+00
 59, 5.800000e-02, 0.000000e+00
 60, 5.900000e-02, 0.000000e+00
 61, 6.000000e-02, 0.000000e+00
 62, 0.000000e+00, 3.000000e-04
 63, 1.000000e-03, 3.000000e-04
 64, 2.000000e-03, 3.000000e-04
 65, 3.000000e-03, 3.000000e-04
 66, 4.000000e-03, 3.000000e-04
 67, 5.000000e-03, 3.000000e-04
 68, 6.000000e-03, 3.000000e-04
 69, 7.000000e-03, 3.000000e-04
 70, 8.000000e-03, 3.000000e-04
 71, 9.000000e-03, 3.000000e-04
 72, 1.000000e-02, 3.000000e-04
 73, 1.100000e-02, 3.000000e-04
 74, 1.200000e-02, 3.000000e-04
 75, 1.300000e-02, 3.000000e-04
 76, 1.400000e-02, 3.000000e-04
 77, 1.500000e-02, 3.000000e-04
 78, 1.600000e-02, 3.000000e-04
 79, 1.700000e-02, 3.000000e-04
 80, 1.800000e-02, 3.000000e-04
 81, 1.900000e-02, 3.000000e-04
 82, 2.000000e-02, 3.000000e-04
 83, 2.100000e-02, 3.000000e-04
 84, 2.200000e-02, 3.000000e-04
 85, 2.300000e-02, 3.000000e-04
 86, 2.400000e-02, 3.000000e-04
 87, 2.500000e-02, 3.000000e-04
 88, 2.600000e-02, 3.000000e-04
 89, 2.700000e-02, 3.000000e-04
 90, 2.800000e-02, 3.000000e-04
 91, 2.900000e-02, 3.000000e-04
 92, 3.000000e-02, 3.000000e-04
 93, 3.100000e-02, 3.000000e-04
 94, 3.200000e-02, 3.000000e-04
 95, 3.300000e-02, 3.000000e-04
 96, 3.400000e-02, 3.000000e-04
 97, 3.500000e-02, 3.000000e-04
 98, 3.600000e-02, 3.000000e-04
 99, 3.700000e-02, 3.000000e-04
 100, 3.800000e-02, 3.000000e-04
 101, 3.900000e-02, 3.000000e-04
 102, 4.000000e-02, 3.000000e-04
 103, 4.100000e-02, 3.000000e-04
 104, 4.200000e-02, 3.000000e-04
 105, 4.300000e-02, 3.000000e-04
 106, 4.400000e-02, 3.000000e-04
 107, 4.500000e-02, 3.000000e-04
 108, 4.600000e-02, 3.000000e-04
 109, 4.700000e-02, 3.000000e-04
 110, 4.800000e-02, 3.000000e-04
 111, 4.900000e-02, 3.000000e-04
 112, 5.000000e-02, 3.000000e-04
 113, 5.100000e-02, 3.000000e-04
 114, 5.200000e-02, 3.000000e-04
 115, 5.300000e-02, 3.000000e-04
 116, 5.400000e-02, 3.000000e-04
 117, 5.500000e-02, 3.000000e-04
 118, 5.600000e-02, 3.000000e-04
 119, 5.700000e-02, 3.000000e-04
 120, 5.800000e-02, 3.000000e-04
 121, 5.900000e-02, 3.000000e-04
 122, 6.000000e-02, 3.000000e-04
 123, 0.000000e+00, 6.000000e-04
 124, 1.000000e-03, 6.000000e-04
 125, 2.000000e-03, 6.000000e-04
 126, 3.000000e-03, 6.000000e-04
 127, 4.000000e-03, 6.000000e-04
 128, 5.000000e-03, 6.000000e-04
 129, 6.000000e-03, 6.000000e-04
 130, 7.000000e-03, 6.000000e-04
 131, 8.000000e-03, 6.000000e-04
 132, 9.000000e-03, 6.000000e-04
 133, 1.000000e-02, 6.000000e-04
 134, 1.100000e-02, 6.000000e-04
 135, 1.200000e-02, 6.000000e-04
 136, 1.300000e-02, 6.000000e-04
 137, 1.400000e-02, 6.000000e-04
 138, 1.500000e-02, 6.000000e-04
 139, 1.600000e-02, 6.000000e-04
 140, 1.700000e-02, 6.000000e-04
 141, 1.800000e-02, 6.000000e-04
 142, 1.900000e-02, 6.000000e-04
 143, 2.000000e-02, 6.000000e-04
 144, 2.100000e-02, 6.000000e-04
 145, 2.200000e-02, 6.000000e-04
 146, 2.300000e-02, 6.000000e-04
 147, 2.400000e-02, 6.000000e-04
 148, 2.500000e-02, 6.000000e-04
 149, 2.600000e-02, 6.000000e-04
 150, 2.700000e-02, 6.000000e-04
 151, 2.800000e-02, 6.000000e-04
 152, 2.900000e-02, 6.000000e-04
 153, 3.000000e-02, 6.000000e-04
 154, 3.100000e-02, 6.000000e-04
 155, 3.200000e-02, 6.000000e-04
 156, 3.300000e-02, 6.000000e-04
 157, 3.400000e-02, 6.000000e-04
 158, 3.500000e-02, 6.000000e-04
 159, 3.600000e-02, 6.000000e-04
 160, 3.700000e-02, 6.000000e-04
 161, 3.800000e-02, 6.000000e-04
 162, 3.900000e-02, 6.000000e-04
 163, 4.000000e-02, 6.000000e-04
 164, 4.100000e-02, 6.000000e-04
 165, 4.200000e-02, 6.000000e-04
 166, 4.300000e-02, 6.000000e-04
 167, 4.400000e-02, 6.000000e-04
 168, 4.500000e-02, 6.000000e-04
 169, 4.600000e-02, 6.000000e-04
 170, 4.700000e-02, 6.000000e-04
 171, 4.800000e-02, 6.000000e-04
 172, 4.900000e-02, 6.000000e-04
 173, 5.000000e-02, 6.000000e-04
 174, 5.100000e-02, 6.000000e-04
 175, 5.200000e-02, 6.000000e-04
 176, 5.300000e-02, 6.000000e-04
 177, 5.400000e-02, 6.000000e-04
 178, 5.500000e-02, 6.000000e-04
 179, 5.600000e-02, 6.000000e-04
 180, 5.700000e-02, 6.000000e-04
 181, 5.800000e-02, 6.000000e-04
 182, 5.900000e-02, 6.000000e-04
 183, 6.000000e-02, 6.000000e-04
 184, 0.000000e+00, 6.000000e-04
 185, 1.000000e-03, 6.000000e-04
 186, 2.000000e-03, 6.000000e-04
 187, 3.000000e-03, 6.000000e-04
 188, 4.000000e-03, 6.000000e-04
 189, 5.000000e-03, 6.000000e-04
 190, 6.000000e-03, 6.000000e-04
 191, 7.000000e-03, 6.000000e-04
 192, 8.000000e-03, 6.000000e-04
 193, 9.000000e-03, 6.000000e-04
 194, 1.000000e-02, 6.000000e-04
 195, 1.100000e-02, 6.000000e-04
 196, 1.200000e-02, 6.000000e-04
 197, 1.300000e-02, 6.000000e-04
 198, 1.400000e-02, 6.000000e-04
 199, 1.500000e-02, 6.000000e-04
 200, 1.600000e-02, 6.000000e-04
 201, 1.700000e-02, 6.000000e-04
 202, 1.800000e-02, 6.000000e-04
 203, 1.900000e-02, 6.000000e-04
 204, 2.000000e-02, 6.000000e-04
 205, 2.100000e-02, 6.000000e-04
 206, 2.200000e-02, 6.000000e-04
 207, 2.300000e-02, 6.000000e-04
 208, 2.400000e-02, 6.000000e-04
 209, 2.500000e-02, 6.000000e-04
 210, 2.600000e-02, 6.000000e-04
 211, 2.700000e-02, 6.000000e-04
 212, 2.800000e-02, 6.000000e-04
 213, 2.900000e-02, 6.000000e-04
 214, 3.000000e-02, 6.000000e-04
 215, 3.100000e-02, 6.000000e-04
 216, 3.200000e-02, 6.000000e-04
 217, 3.300000e-02, 6.000000e-04
 218, 3.400000e-02, 6.000000e-04
 219, 3.500000e-02, 6.000000e-04
 220, 3.600000e-02, 6.000000e-04
 221, 3.700000e-02, 6.000000e-04
 222, 3.800000e-02, 6.000000e-04
 223, 3.900000e-02, 6.000000e-04
 224, 4.000000e-02, 6.000000e-04
 225, 4.100000e-02, 6.000000e-04
 226, 4.200000e-02, 6.000000e-04
 227, 4.300000e-02, 6.000000e-04
 228, 4.400000e-02, 6.000000e-04
 229, 4.500000e-02, 6.000000e-04
 230, 4.600000e-02, 6.000000e-04
 231, 4.700000e-02, 6.000000e-04
 232, 4.800000e-02, 6.000000e-04
 233, 4.900000e-02, 6.000000e-04
 234, 5.000000e-02, 6.000000e-04
 235, 5.100000e-02, 6.000000e-04
 236, 5.200000e-02, 6.000000e-04
 237, 5.300000e-02, 6.000000e-04
 238, 5.400000e-02, 6.000000e-04
 239, 5.500000e-02, 6.000000e-04
 240, 5.600000e-02, 6.000000e-04
 241, 5.700000e-02, 6.000000e-04
 242, 5.800000e-02, 6.000000e-04
 243, 5.900000e-02, 6.000000e-04
 244, 6.000000e-02, 6.000000e-04
 245, 0.000000e+00, 9.000000e-04
 246, 1.000000e-03, 9.000000e-04
 247, 2.000000e-03, 9.000000e-04
 248, 3.000000e-03, 9.000000e-04
 249, 4.000000e-03, 9.000000e-04
 250, 5.000000e-03, 9.000000e-04
 251, 6.000000e-03, 9.000000e-04
 252, 7.000000e-03, 9.000000e-04
 253, 8.000000e-03, 9.000000e-04
 254, 9.000000e-03, 9.000000e-04
 255, 1.000000e-02, 9.000000e-04
 256, 1.100000e-02, 9.000000e-04
 257, 1.200000e-02, 9.000000e-04
 258, 1.300000e-02, 9.000000e-04
 259, 1.400000e-02, 9.000000e-04
 260, 1.500000e-02, 9.000000e-04
 261, 1.600000e-02, 9.000000e-04
 262, 1.700000e-02, 9.000000e-04
 263, 1.800000e-02, 9.000000e-04
 264, 1.900000e-02, 9.000000e-04
 265, 2.000000e-02, 9.000000e-04
 266, 2.100000e-02, 9.000000e-04
 267, 2.200000e-02, 9.000000e-04
 268, 2.300000e-02, 9.000000e-04
 269, 2.400000e-02, 9.000000e-04
 270, 2.500000e-02, 9.000000e-04
 271, 2.600000e-02, 9.000000e-04
 272, 2.700000e-02, 9.000000e-04
 273, 2.800000e-02, 9.000000e-04
 274, 2.900000e-02, 9.000000e-04
 275, 3.000000e-02, 9.000000e-04
 276, 3.100000e-02, 9.000000e-04
 277, 3.200000e-02, 9.000000e-04
 278, 3.300000e-02, 9.000000e-04
 279, 3.400000e-02, 9.000000e-04
 280, 3.500000e-02, 9.000000e-04
 281, 3.600000e-02, 9.000000e-04
 282, 3.700000e-02, 9.000000e-04
 283, 3.800000e-02, 9.000000e-04
 284, 3.900000e-02, 9.000000e-04
 285, 4.000000e-02, 9.000000e-04
 286, 4.100000e-02, 9.000000e-04
 287, 4.200000e-02, 9.000000e-04
 288, 4.300000e-02, 9.000000e-04
 289, 4.400000e-02, 9.000000e-04
 290, 4.500000e-02, 9.000000e-04
 291, 4.600000e-02, 9.000000e-04
 292, 4.700000e-02, 9.000000e-04
 293, 4.800000e-02, 9.000000e-04
 294, 4.900000e-02, 9.000000e-04
 295, 5.000000e-02, 9.000000e-04
 296, 5.100000e-02, 9.000000e-04
 297, 5.200000e-02, 9.000000e-04
 298, 5.300000e-02, 9.000000e-04
 299, 5.400000e-02, 9.000000e-04
 300, 5.500000e-02, 9.000000e-04
 301, 5.600000e-02, 9.000000e-04
 302, 5.700000e-02, 9.000000e-04
 303, 5.800000e-02, 9.000000e-04
 304, 5.900000e-02, 9.000000e-04
 305, 6.000000e-02, 9.000000e-04
 306, 0.000000e+00, 1.200000e-03
 307, 1.000000e-03, 1.200000e-03
 308, 2.000000e-03, 1.200000e-03
 309, 3.000000e-03, 1.200000e-03
 310, 4.000000e-03, 1.200000e-03
 311, 5.000000e-03, 1.200000e-03
 312, 6.000000e-03, 1.200000e-03
 313, 7.000000e-03, 1.200000e-03
 314, 8.000000e-03, 1.200000e-03
 315, 9.000000e-03, 1.200000e-03
 316, 1.000000e-02, 1.200000e-03
 317, 1.100000e-02, 1.200000e-03
 318, 1.200000e-02, 1.200000e-03
 319, 1.300000e-02, 1.200000e-03
 320, 1.400000e-02, 1.200000e-03
 321, 1.500000e-02, 1.200000e-03
 322, 1.600000e-02, 1.200000e-03
 323, 1.700000e-02, 1.200000e-03
 324, 1.800000e-02, 1.200000e-03
 325, 1.900000e-02, 1.200000e-03
 326, 2.000000e-02, 1.200000e-03
 327, 2.100000e-02, 1.200000e-03
 328, 2.200000e-02, 1.200000e-03
 329, 2.300000e-02, 1.200000e-03
 330, 2.400000e-02, 1.200000e-03
 331, 2.500000e-02, 1.200000e-03
 332, 2.600000e-02, 1.200000e-03
 333, 2.700000e-02, 1.200000e-03
 334, 2.800000e-02, 1.200000e-03
 335, 2.900000e-02, 1.200000e-03
 336, 3.000000e-02, 1.200000e-03
 337, 3.100000e-02, 1.200000e-03
 338, 3.200000e-02, 1.200000e-03
 339, 3.300000e-02, 1.200000e-03
 340, 3.400000e-02, 1.200000e-03
 341, 3.500000e-02, 1.200000e-03
 342, 3.600000e-02, 1.200000e-03
 343, 3.700000e-02, 1.200000e-03
 344, 3.800000e-02, 1.200000e-03
 345, 3.900000e-02, 1.200000e-03
 346, 4.000000e-02, 1.200000e-03
 347, 4.100000e-02, 1.200000e-03
 348, 4.200000e-02, 1.200000e-03
 349, 4.300000e-02, 1.200000e-03
 350, 4.400000e-02, 1.200000e-03
 351, 4.500000e-02, 1.200000e-03
 352, 4.600000e-02, 1.200000e-03
 353, 4.700000e-02, 1.200000e-03
 354, 4.800000e-02, 1.200000e-03
 355, 4.900000e-02, 1.200000e-03
 356, 5.000000e-02, 1.200000e-03
 357, 5.100000e-02, 1.200000e-03
 358, 5.200000e-02, 1.200000e-03
 359, 5.300000e-02, 1.200000e-03
 360, 5.400000e-02, 1.200000e-03
 361, 5.500000e-02, 1.200000e-03
 362, 5.600000e-02, 1.200000e-03
 363, 5.700000e-02, 1.200000e-03
 364, 5.800000e-02, 1.200000e-03
 365, 5.900000e-02, 1.200000e-03
 366, 6.000000e-02, 1.200000e-03
*ELEMENT, TYPE=CPE4, ELSET=BOT
 1, 1, 2, 63, 62
 2, 2, 3, 64, 63
 3, 3, 4, 65, 64
 4, 4, 5, 66, 65
 5, 5, 6, 67, 66
 6, 6, 7, 68, 67
 7, 7, 8, 69, 68
 8, 8, 9, 70, 69
 9, 9, 10, 71, 70
 10, 10, 11, 72, 71
 11, 11, 12, 73, 72
 12, 12, 13, 74, 73
 13, 13, 14, 75, 74
 14, 14, 15, 76, 75
 15, 15, 16, 77, 76
 16, 16, 17, 78, 77
 17, 17, 18, 79, 78
 18, 18, 19, 80, 79
 19, 19, 20, 81, 80
 20, 20, 21, 82, 81
 21, 21, 22, 83, 82
 22, 22, 23, 84, 83
 23, 23, 24, 85, 84
 24, 24, 25, 86, 85
 25, 25, 26, 87, 86
 26, 26, 27, 88, 87
 27, 27, 28, 89, 88
 28, 28, 29, 90, 89
 29, 29, 30, 91, 90
 30, 30, 31, 92, 91
 31, 31, 32, 93, 92
 32, 32, 33, 94, 93
 33, 33, 34, 95, 94
 34, 34, 35, 96, 95
 35, 35, 36, 97, 96
 36, 36, 37, 98, 97
 37, 37, 38, 99, 98
 38, 38, 39, 100, 99
 39, 39, 40, 101, 100
 40, 40, 41, 102, 101
 41, 41, 42, 103, 102
 42, 42, 43, 104, 103
 43, 43, 44, 105, 104
 44, 44, 45, 106, 105
 45, 45, 46, 107, 106
 46, 46, 47, 108, 107
 47, 47, 48, 109, 108
 48, 48, 49, 110, 109
 49, 49, 50, 111, 110
 50, 50, 51, 112, 111
 51, 51, 52, 113, 112
 52, 52, 53, 114, 113
 53, 53, 54, 115, 114
 54, 54, 55, 116, 115
 55, 55, 56, 117, 116
 56, 56, 57, 118, 117
 57, 57, 58, 119, 118
 58, 58, 59, 120, 119
 59, 59, 60, 121, 120
 60, 60, 61, 122, 121
 61, 62, 63, 124, 123
 62, 63, 64, 125, 124
 63, 64, 65, 126, 125
 64, 65, 66, 127, 126
 65, 66, 67, 128, 127
 66, 67, 68, 129, 128
 67, 68, 69, 130, 129
 68, 69, 70, 131, 130
 69, 70, 71, 132, 131
 70, 71, 72, 133, 132
 71, 72, 73, 134, 133
 72, 73, 74, 135, 134
 73, 74, 75, 136, 135
 74, 75, 76, 137, 136
 75, 76, 77, 138, 137
 76, 77, 78, 139, 138
 77, 78, 79, 140, 139
 78, 79, 80, 141, 140
 79, 80, 81, 142, 141
 80, 81, 82, 143, 142
 81, 82, 83, 144, 143
 82, 83, 84, 145, 144
 83, 84, 85, 146, 145
 84, 85, 86, 147, 146
 85, 86, 87, 148, 147
 86, 87, 88, 149, 148
 87, 88, 89, 150, 149
 88, 89, 90, 151, 150
 89, 90, 91, 152, 151
 90, 91, 92, 153, 152
 91, 92, 93, 154, 153
 92, 93, 94, 155, 154
 93, 94, 95, 156, 155
 94, 95, 96, 157, 156
 95, 96, 97, 158, 157
 96, 97, 98, 159, 158
 97, 98, 99, 160, 159
 98, 99, 100, 161, 160
 99, 100, 101, 162, 161
 100, 101, 102, 163, 162
 101, 102, 103, 164, 163
 102, 103, 104, 165, 164
 103, 104, 105, 166, 165
 104, 105, 106, 167, 166
 105, 106, 107, 168, 167
 106, 107, 108, 169, 168
 107, 108, 109, 170, 169
 108, 109, 110, 171, 170
 109, 110, 111, 172, 171
 110, 111, 112, 173, 172
 111, 112, 113, 174, 173
 112, 113, 114, 175, 174
 113, 114, 115, 176, 175
 114, 115, 116, 177, 176
 115, 116, 117, 178, 177
 116, 117, 118, 179, 178
 117, 118, 119, 180, 179
 118, 119, 120, 181, 180
 119, 120, 121, 182, 181
 120, 121, 122, 183, 182
*ELEMENT, TYPE=CPE4, ELSET=TOP
 1000001, 184, 185, 246, 245
 1000002, 185, 186, 247, 246
 1000003, 186, 187, 248, 247
 1000004, 187, 188, 249, 248
 1000005, 188, 189, 250, 249
 1000006, 189, 190, 251, 250
 1000007, 190, 191, 252, 251
 1000008, 191, 192, 253, 252
 1000009, 192, 193, 254, 253
 1000010, 193, 194, 255, 254
 1000011, 194, 195, 256, 255
 1000012, 195, 196, 257, 256
 1000013, 196, 197, 258, 257
 1000014, 197, 198, 259, 258
 1000015, 198, 199, 260, 259
 1000016, 199, 200, 261, 260
 1000017, 200, 201, 262, 261
 1000018, 201, 202, 263, 262
 1000019, 202, 203, 264, 263
 1000020, 203, 204, 265, 264
 1000021, 204, 205, 266, 265
 1000022, 205, 206, 267, 266
 1000023, 206, 207, 268, 267
 1000024, 207, 208, 269, 268
 1000025, 208, 209, 270, 269
 1000026, 209, 210, 271, 270
 1000027, 210, 211, 272, 271
 1000028, 211, 212, 273, 272
 1000029, 212, 213, 274, 273
 1000030, 213, 214, 275, 274
 1000031, 214, 215, 276, 275
 1000032, 215, 216, 277, 276
 1000033, 216, 217, 278, 277
 1000034, 217, 218, 279, 278
 1000035, 218, 219, 280, 279
 1000036, 219, 220, 281, 280
 1000037, 220, 221, 282, 281
 1000038, 221, 222, 283, 282
 1000039, 222, 223, 284, 283
 1000040, 223, 224, 285, 284
 1000041, 224, 225, 286, 285
 1000042, 225, 226, 287, 286
 1000043, 226, 227, 288, 287
 1000044, 227, 228, 289, 288
 1000045, 228, 229, 290, 289
 1000046, 229, 230, 291, 290
 1000047, 230, 231, 292, 291
 1000048, 231, 232, 293, 292
 1000049, 232, 233, 294, 293
 1000050, 233, 234, 295, 294
 1000051, 234, 235, 296, 295
 1000052, 235, 236, 297, 296
 1000053, 236, 237, 298, 297
 1000054, 237, 238, 299, 298
 1000055, 238, 239, 300, 299
 1000056, 239, 240, 301, 300
 1000057, 240, 241, 302, 301
 1000058, 241, 242, 303, 302
 1000059, 242, 243, 304, 303
 1000060, 243, 244, 305, 304
 1000061, 245, 246, 307, 306
 1000062, 246, 247, 308, 307
 1000063, 247, 248, 309, 308
 1000064, 248, 249, 310, 309
 1000065, 249, 250, 311, 310
 1000066, 250, 251, 312, 311
 1000067, 251, 252, 313, 312
 1000068, 252, 253, 314, 313
 1000069, 253, 254, 315, 314
 1000070, 254, 255, 316, 315
 1000071, 255, 256, 317, 316
 1000072, 256, 257, 318, 317
 1000073, 257, 258, 319, 318
 1000074, 258, 259, 320, 319
 1000075, 259, 260, 321, 320
 1000076, 260, 261, 322, 321
 1000077, 261, 262, 323, 322
 1000078, 262, 263, 324, 323
 1000079, 263, 264, 325, 324
 1000080, 264, 265, 326, 325
 1000081, 265, 266, 327, 326
 1000082, 266, 267, 328, 327
 1000083, 267, 268, 329, 328
 1000084, 268, 269, 330, 329
 1000085, 269, 270, 331, 330
 1000086, 270, 271, 332, 331
 1000087, 271, 272, 333, 332
 1000088, 272, 273, 334, 333
 1000089, 273, 274, 335, 334
 1000090, 274, 275, 336, 335
 1000091, 275, 276, 337, 336
 1000092, 276, 277, 338, 337
 1000093, 277, 278, 339, 338
 1000094, 278, 279, 340, 339
 1000095, 279, 280, 341, 340
 1000096, 280, 281, 342, 341
 1000097, 281, 282, 343, 342
 1000098, 282, 283, 344, 343
 1000099, 283, 284, 345, 344
 1000100, 284, 285, 346, 345
 1000101, 285, 286, 347, 346
 1000102, 286, 287, 348, 347
 1000103, 287, 288, 349, 348
 1000104, 288, 289, 350, 349
 1000105, 289, 290, 351, 350
 1000106, 290, 291, 352, 351
 1000107, 291, 292, 353, 352
 1000108, 292, 293, 354, 353
 1000109, 293, 294, 355, 354
 1000110, 294, 295, 356, 355
 1000111, 295, 296, 357, 356
 1000112, 296, 297, 358, 357
 1000113, 297, 298, 359, 358
 1000114, 298, 299, 360, 359
 1000115, 299, 300, 361, 360
 1000116, 300, 301, 362, 361
 1000117, 301, 302, 363, 362
 1000118, 302, 303, 364, 363
 1000119, 303, 304, 365, 364
 1000120, 304, 305, 366, 365
*ELEMENT, TYPE=COH2D4, ELSET=COH
 2000001, 138, 139, 200, 199
 2000002, 139, 140, 201, 200
 2000003, 140, 141, 202, 201
 2000004, 141, 142, 203, 202
 2000005, 142, 143, 204, 203
 2000006, 143, 144, 205, 204
 2000007, 144, 145, 206, 205
 2000008, 145, 146, 207, 206
 2000009, 146, 147, 208, 207
 2000010, 147, 148, 209, 208
 2000011, 148, 149, 210, 209
 2000012, 149, 150, 211, 210
 2000013, 150, 151, 212, 211
 2000014, 151, 152, 213, 212
 2000015, 152, 153, 214, 213
 2000016, 153, 154, 215, 214
 2000017, 154, 155, 216, 215
 2000018, 155, 156, 217, 216
 2000019, 156, 157, 218, 217
 2000020, 157, 158, 219, 218
 2000021, 158, 159, 220, 219
 2000022, 159, 160, 221, 220
 2000023, 160, 161, 222, 221
 2000024, 161, 162, 223, 222
 2000025, 162, 163, 224, 223
 2000026, 163, 164, 225, 224
 2000027, 164, 165, 226, 225
 2000028, 165, 166, 227, 226
 2000029, 166, 167, 228, 227
 2000030, 167, 168, 229, 228
 2000031, 168, 169, 230, 229
 2000032, 169, 170, 231, 230
 2000033, 170, 171, 232, 231
 2000034, 171, 172, 233, 232
 2000035, 172, 173, 234, 233
 2000036, 173, 174, 235, 234
 2000037, 174, 175, 236, 235
 2000038, 175, 176, 237, 236
 2000039, 176, 177, 238, 237
 2000040, 177, 178, 239, 238
 2000041, 178, 179, 240, 239
 2000042, 179, 180, 241, 240
 2000043, 180, 181, 242, 241
 2000044, 181, 182, 243, 242
 2000045, 182, 183, 244, 243
**
*SOLID SECTION, ELSET=BOT, MATERIAL=PLY
*SOLID SECTION, ELSET=TOP, MATERIAL=PLY
*SECTION CONTROLS, NAME=COHVISC, VISCOSITY=1.0e-5
*COHESIVE SECTION, ELSET=COH, MATERIAL=INTERFACE, RESPONSE=TRACTION SEPARATION, THICKNESS=SPECIFIED, CONTROLS=COHVISC
 1.0
**
*MATERIAL, NAME=PLY
*ELASTIC
 60.0e9, 0.30
*MATERIAL, NAME=INTERFACE
*ELASTIC, TYPE=TRACTION
 1.0e14, 1.0e14, 1.0e14
*DAMAGE INITIATION, CRITERION=QUADS
 12.0e6, 18.0e6, 18.0e6
*DAMAGE EVOLUTION, TYPE=ENERGY, MIXED MODE BEHAVIOR=BK, POWER=1.6
 200.0, 600.0, 600.0
**
*NSET, NSET=CLAMP
 61, 122, 183, 244, 305, 366
*NSET, NSET=TIP
 306,
*BOUNDARY
 CLAMP, 1, 2, 0.0
**
*STEP, NLGEOM=YES, INC=1000
*STATIC
 0.002, 1.0, 1.0e-8, 0.02
*BOUNDARY
 TIP, 1, 1, 2.113091e-04
 TIP, 2, 2, 4.531539e-04
*CONTROLS, ANALYSIS=DISCONTINUOUS
*OUTPUT, FIELD
*ELEMENT OUTPUT, ELSET=COH
 SDEG, STATUS
*NODE OUTPUT
 U, RF
*END STEP
