*HEADING
 CFRTP residual stress (3D [0/90]) -- CRYSTALLIZATION-COUPLED VE UMAT
 Nakamura crystallization + Prony/WLF + crystallinity shift. cfrtp_cryst_umat_ve.f.
**
*NODE, NSET=NALL
 1, 0.000000e+00, 0.000000e+00, 0.000000e+00
 2, 3.333333e-03, 0.000000e+00, 0.000000e+00
 3, 6.666667e-03, 0.000000e+00, 0.000000e+00
 4, 1.000000e-02, 0.000000e+00, 0.000000e+00
 5, 1.333333e-02, 0.000000e+00, 0.000000e+00
 6, 1.666667e-02, 0.000000e+00, 0.000000e+00
 7, 2.000000e-02, 0.000000e+00, 0.000000e+00
 8, 0.000000e+00, 3.000000e-03, 0.000000e+00
 9, 3.333333e-03, 3.000000e-03, 0.000000e+00
 10, 6.666667e-03, 3.000000e-03, 0.000000e+00
 11, 1.000000e-02, 3.000000e-03, 0.000000e+00
 12, 1.333333e-02, 3.000000e-03, 0.000000e+00
 13, 1.666667e-02, 3.000000e-03, 0.000000e+00
 14, 2.000000e-02, 3.000000e-03, 0.000000e+00
 15, 0.000000e+00, 6.000000e-03, 0.000000e+00
 16, 3.333333e-03, 6.000000e-03, 0.000000e+00
 17, 6.666667e-03, 6.000000e-03, 0.000000e+00
 18, 1.000000e-02, 6.000000e-03, 0.000000e+00
 19, 1.333333e-02, 6.000000e-03, 0.000000e+00
 20, 1.666667e-02, 6.000000e-03, 0.000000e+00
 21, 2.000000e-02, 6.000000e-03, 0.000000e+00
 22, 0.000000e+00, 9.000000e-03, 0.000000e+00
 23, 3.333333e-03, 9.000000e-03, 0.000000e+00
 24, 6.666667e-03, 9.000000e-03, 0.000000e+00
 25, 1.000000e-02, 9.000000e-03, 0.000000e+00
 26, 1.333333e-02, 9.000000e-03, 0.000000e+00
 27, 1.666667e-02, 9.000000e-03, 0.000000e+00
 28, 2.000000e-02, 9.000000e-03, 0.000000e+00
 29, 0.000000e+00, 1.200000e-02, 0.000000e+00
 30, 3.333333e-03, 1.200000e-02, 0.000000e+00
 31, 6.666667e-03, 1.200000e-02, 0.000000e+00
 32, 1.000000e-02, 1.200000e-02, 0.000000e+00
 33, 1.333333e-02, 1.200000e-02, 0.000000e+00
 34, 1.666667e-02, 1.200000e-02, 0.000000e+00
 35, 2.000000e-02, 1.200000e-02, 0.000000e+00
 36, 0.000000e+00, 0.000000e+00, 6.000000e-04
 37, 3.333333e-03, 0.000000e+00, 6.000000e-04
 38, 6.666667e-03, 0.000000e+00, 6.000000e-04
 39, 1.000000e-02, 0.000000e+00, 6.000000e-04
 40, 1.333333e-02, 0.000000e+00, 6.000000e-04
 41, 1.666667e-02, 0.000000e+00, 6.000000e-04
 42, 2.000000e-02, 0.000000e+00, 6.000000e-04
 43, 0.000000e+00, 3.000000e-03, 6.000000e-04
 44, 3.333333e-03, 3.000000e-03, 6.000000e-04
 45, 6.666667e-03, 3.000000e-03, 6.000000e-04
 46, 1.000000e-02, 3.000000e-03, 6.000000e-04
 47, 1.333333e-02, 3.000000e-03, 6.000000e-04
 48, 1.666667e-02, 3.000000e-03, 6.000000e-04
 49, 2.000000e-02, 3.000000e-03, 6.000000e-04
 50, 0.000000e+00, 6.000000e-03, 6.000000e-04
 51, 3.333333e-03, 6.000000e-03, 6.000000e-04
 52, 6.666667e-03, 6.000000e-03, 6.000000e-04
 53, 1.000000e-02, 6.000000e-03, 6.000000e-04
 54, 1.333333e-02, 6.000000e-03, 6.000000e-04
 55, 1.666667e-02, 6.000000e-03, 6.000000e-04
 56, 2.000000e-02, 6.000000e-03, 6.000000e-04
 57, 0.000000e+00, 9.000000e-03, 6.000000e-04
 58, 3.333333e-03, 9.000000e-03, 6.000000e-04
 59, 6.666667e-03, 9.000000e-03, 6.000000e-04
 60, 1.000000e-02, 9.000000e-03, 6.000000e-04
 61, 1.333333e-02, 9.000000e-03, 6.000000e-04
 62, 1.666667e-02, 9.000000e-03, 6.000000e-04
 63, 2.000000e-02, 9.000000e-03, 6.000000e-04
 64, 0.000000e+00, 1.200000e-02, 6.000000e-04
 65, 3.333333e-03, 1.200000e-02, 6.000000e-04
 66, 6.666667e-03, 1.200000e-02, 6.000000e-04
 67, 1.000000e-02, 1.200000e-02, 6.000000e-04
 68, 1.333333e-02, 1.200000e-02, 6.000000e-04
 69, 1.666667e-02, 1.200000e-02, 6.000000e-04
 70, 2.000000e-02, 1.200000e-02, 6.000000e-04
 71, 0.000000e+00, 0.000000e+00, 1.200000e-03
 72, 3.333333e-03, 0.000000e+00, 1.200000e-03
 73, 6.666667e-03, 0.000000e+00, 1.200000e-03
 74, 1.000000e-02, 0.000000e+00, 1.200000e-03
 75, 1.333333e-02, 0.000000e+00, 1.200000e-03
 76, 1.666667e-02, 0.000000e+00, 1.200000e-03
 77, 2.000000e-02, 0.000000e+00, 1.200000e-03
 78, 0.000000e+00, 3.000000e-03, 1.200000e-03
 79, 3.333333e-03, 3.000000e-03, 1.200000e-03
 80, 6.666667e-03, 3.000000e-03, 1.200000e-03
 81, 1.000000e-02, 3.000000e-03, 1.200000e-03
 82, 1.333333e-02, 3.000000e-03, 1.200000e-03
 83, 1.666667e-02, 3.000000e-03, 1.200000e-03
 84, 2.000000e-02, 3.000000e-03, 1.200000e-03
 85, 0.000000e+00, 6.000000e-03, 1.200000e-03
 86, 3.333333e-03, 6.000000e-03, 1.200000e-03
 87, 6.666667e-03, 6.000000e-03, 1.200000e-03
 88, 1.000000e-02, 6.000000e-03, 1.200000e-03
 89, 1.333333e-02, 6.000000e-03, 1.200000e-03
 90, 1.666667e-02, 6.000000e-03, 1.200000e-03
 91, 2.000000e-02, 6.000000e-03, 1.200000e-03
 92, 0.000000e+00, 9.000000e-03, 1.200000e-03
 93, 3.333333e-03, 9.000000e-03, 1.200000e-03
 94, 6.666667e-03, 9.000000e-03, 1.200000e-03
 95, 1.000000e-02, 9.000000e-03, 1.200000e-03
 96, 1.333333e-02, 9.000000e-03, 1.200000e-03
 97, 1.666667e-02, 9.000000e-03, 1.200000e-03
 98, 2.000000e-02, 9.000000e-03, 1.200000e-03
 99, 0.000000e+00, 1.200000e-02, 1.200000e-03
 100, 3.333333e-03, 1.200000e-02, 1.200000e-03
 101, 6.666667e-03, 1.200000e-02, 1.200000e-03
 102, 1.000000e-02, 1.200000e-02, 1.200000e-03
 103, 1.333333e-02, 1.200000e-02, 1.200000e-03
 104, 1.666667e-02, 1.200000e-02, 1.200000e-03
 105, 2.000000e-02, 1.200000e-02, 1.200000e-03
*ELEMENT, TYPE=C3D8, ELSET=EALL
 1, 1, 2, 9, 8, 36, 37, 44, 43
 2, 2, 3, 10, 9, 37, 38, 45, 44
 3, 3, 4, 11, 10, 38, 39, 46, 45
 4, 4, 5, 12, 11, 39, 40, 47, 46
 5, 5, 6, 13, 12, 40, 41, 48, 47
 6, 6, 7, 14, 13, 41, 42, 49, 48
 7, 8, 9, 16, 15, 43, 44, 51, 50
 8, 9, 10, 17, 16, 44, 45, 52, 51
 9, 10, 11, 18, 17, 45, 46, 53, 52
 10, 11, 12, 19, 18, 46, 47, 54, 53
 11, 12, 13, 20, 19, 47, 48, 55, 54
 12, 13, 14, 21, 20, 48, 49, 56, 55
 13, 15, 16, 23, 22, 50, 51, 58, 57
 14, 16, 17, 24, 23, 51, 52, 59, 58
 15, 17, 18, 25, 24, 52, 53, 60, 59
 16, 18, 19, 26, 25, 53, 54, 61, 60
 17, 19, 20, 27, 26, 54, 55, 62, 61
 18, 20, 21, 28, 27, 55, 56, 63, 62
 19, 22, 23, 30, 29, 57, 58, 65, 64
 20, 23, 24, 31, 30, 58, 59, 66, 65
 21, 24, 25, 32, 31, 59, 60, 67, 66
 22, 25, 26, 33, 32, 60, 61, 68, 67
 23, 26, 27, 34, 33, 61, 62, 69, 68
 24, 27, 28, 35, 34, 62, 63, 70, 69
 25, 36, 37, 44, 43, 71, 72, 79, 78
 26, 37, 38, 45, 44, 72, 73, 80, 79
 27, 38, 39, 46, 45, 73, 74, 81, 80
 28, 39, 40, 47, 46, 74, 75, 82, 81
 29, 40, 41, 48, 47, 75, 76, 83, 82
 30, 41, 42, 49, 48, 76, 77, 84, 83
 31, 43, 44, 51, 50, 78, 79, 86, 85
 32, 44, 45, 52, 51, 79, 80, 87, 86
 33, 45, 46, 53, 52, 80, 81, 88, 87
 34, 46, 47, 54, 53, 81, 82, 89, 88
 35, 47, 48, 55, 54, 82, 83, 90, 89
 36, 48, 49, 56, 55, 83, 84, 91, 90
 37, 50, 51, 58, 57, 85, 86, 93, 92
 38, 51, 52, 59, 58, 86, 87, 94, 93
 39, 52, 53, 60, 59, 87, 88, 95, 94
 40, 53, 54, 61, 60, 88, 89, 96, 95
 41, 54, 55, 62, 61, 89, 90, 97, 96
 42, 55, 56, 63, 62, 90, 91, 98, 97
 43, 57, 58, 65, 64, 92, 93, 100, 99
 44, 58, 59, 66, 65, 93, 94, 101, 100
 45, 59, 60, 67, 66, 94, 95, 102, 101
 46, 60, 61, 68, 67, 95, 96, 103, 102
 47, 61, 62, 69, 68, 96, 97, 104, 103
 48, 62, 63, 70, 69, 97, 98, 105, 104
*ELSET, ELSET=PLY0, GENERATE
 1, 24, 1
*ELSET, ELSET=PLY90, GENERATE
 25, 48, 1
**
*ORIENTATION, NAME=ORI0, DEFINITION=COORDINATES
 1.0, 0.0, 0.0,  0.0, 1.0, 0.0
 3, 0.0
*ORIENTATION, NAME=ORI90, DEFINITION=COORDINATES
 0.0, 1.0, 0.0, -1.0, 0.0, 0.0
 3, 0.0
*SOLID SECTION, ELSET=PLY0,  MATERIAL=CFRTPX, ORIENTATION=ORI0
*SOLID SECTION, ELSET=PLY90, MATERIAL=CFRTPX, ORIENTATION=ORI90
**
*MATERIAL, NAME=CFRTPX
*DEPVAR
 23,
1, alpha, relative crystallinity
2, g_chile, stiffness fraction
3, smax, max abs sigma11
4, aT, WLF shift
5, aX, crystallinity shift
*USER MATERIAL, CONSTANTS=30
** E1 E2 E3  NU12 NU13 NU23  G12 G13
 135.0e9, 9.0e9, 9.0e9, 0.30, 0.30, 0.45, 5.0e9, 5.0e9,
** G23  A1 A2 A3  BETA  NAVRAMI KMAX TCRYST
 3.0e9, -0.3e-6, 28.0e-6, 28.0e-6, -3.0e-3, 2.5, 3.0, 120.0,
** WCRYST AGEL G0  GINF  G1 TAU1 G2 TAU2   (ginf+g1+g2+g3 = 1)
 30.0, 0.2, 0.02, 0.3, 0.4, 0.02, 0.2, 0.1,
** G3 TAU3  WLF_C1 WLF_C2 WLF_TREF(C)  BX
 0.1, 0.5, 20.0, 80.0, 140.0, 2.0
*INITIAL CONDITIONS, TYPE=TEMPERATURE
 NALL, 260.0
*INITIAL CONDITIONS, TYPE=SOLUTION
 EALL, 1.0e-3
**
*NSET, NSET=NA
 1,
*NSET, NSET=NB
 7,
*NSET, NSET=NC
 29,
*BOUNDARY
 NA, 1, 3, 0.0
 NB, 2, 2, 0.0
 NB, 3, 3, 0.0
 NC, 1, 1, 0.0
 NC, 3, 3, 0.0
**
*AMPLITUDE, NAME=MELTCOOL, TIME=TOTAL TIME
 0.0, 260.0, 0.15, 260.0, 1.0, 25.0
*STEP, NLGEOM=NO, INC=500
*STATIC
 0.005, 1.0, 1.0e-6, 0.02
*TEMPERATURE, AMPLITUDE=MELTCOOL
 NALL, 1.0
*OUTPUT, FIELD
*ELEMENT OUTPUT
 S, E, SDV
*NODE OUTPUT
 U
*END STEP
