*HEADING
 CFRTP L-bracket spring-in (real 3D FE) -- residual-stress warpage
 Hoffman-Lauritzen crystallization+VE UMAT (cfrtp_cryst_umat_hl.f).
 *** Daikin PFA-representative PLACEHOLDER props (not validated). ***
**
*NODE, NSET=NALL
 1, 4.500000e-03, -3.000000e-02, 0.000000e+00
 2, 4.500000e-03, -3.000000e-02, 6.666667e-03
 3, 4.500000e-03, -3.000000e-02, 1.333333e-02
 4, 4.500000e-03, -3.000000e-02, 2.000000e-02
 5, 5.500000e-03, -3.000000e-02, 0.000000e+00
 6, 5.500000e-03, -3.000000e-02, 6.666667e-03
 7, 5.500000e-03, -3.000000e-02, 1.333333e-02
 8, 5.500000e-03, -3.000000e-02, 2.000000e-02
 9, 6.500000e-03, -3.000000e-02, 0.000000e+00
 10, 6.500000e-03, -3.000000e-02, 6.666667e-03
 11, 6.500000e-03, -3.000000e-02, 1.333333e-02
 12, 6.500000e-03, -3.000000e-02, 2.000000e-02
 13, 7.500000e-03, -3.000000e-02, 0.000000e+00
 14, 7.500000e-03, -3.000000e-02, 6.666667e-03
 15, 7.500000e-03, -3.000000e-02, 1.333333e-02
 16, 7.500000e-03, -3.000000e-02, 2.000000e-02
 17, 4.500000e-03, -2.625000e-02, 0.000000e+00
 18, 4.500000e-03, -2.625000e-02, 6.666667e-03
 19, 4.500000e-03, -2.625000e-02, 1.333333e-02
 20, 4.500000e-03, -2.625000e-02, 2.000000e-02
 21, 5.500000e-03, -2.625000e-02, 0.000000e+00
 22, 5.500000e-03, -2.625000e-02, 6.666667e-03
 23, 5.500000e-03, -2.625000e-02, 1.333333e-02
 24, 5.500000e-03, -2.625000e-02, 2.000000e-02
 25, 6.500000e-03, -2.625000e-02, 0.000000e+00
 26, 6.500000e-03, -2.625000e-02, 6.666667e-03
 27, 6.500000e-03, -2.625000e-02, 1.333333e-02
 28, 6.500000e-03, -2.625000e-02, 2.000000e-02
 29, 7.500000e-03, -2.625000e-02, 0.000000e+00
 30, 7.500000e-03, -2.625000e-02, 6.666667e-03
 31, 7.500000e-03, -2.625000e-02, 1.333333e-02
 32, 7.500000e-03, -2.625000e-02, 2.000000e-02
 33, 4.500000e-03, -2.250000e-02, 0.000000e+00
 34, 4.500000e-03, -2.250000e-02, 6.666667e-03
 35, 4.500000e-03, -2.250000e-02, 1.333333e-02
 36, 4.500000e-03, -2.250000e-02, 2.000000e-02
 37, 5.500000e-03, -2.250000e-02, 0.000000e+00
 38, 5.500000e-03, -2.250000e-02, 6.666667e-03
 39, 5.500000e-03, -2.250000e-02, 1.333333e-02
 40, 5.500000e-03, -2.250000e-02, 2.000000e-02
 41, 6.500000e-03, -2.250000e-02, 0.000000e+00
 42, 6.500000e-03, -2.250000e-02, 6.666667e-03
 43, 6.500000e-03, -2.250000e-02, 1.333333e-02
 44, 6.500000e-03, -2.250000e-02, 2.000000e-02
 45, 7.500000e-03, -2.250000e-02, 0.000000e+00
 46, 7.500000e-03, -2.250000e-02, 6.666667e-03
 47, 7.500000e-03, -2.250000e-02, 1.333333e-02
 48, 7.500000e-03, -2.250000e-02, 2.000000e-02
 49, 4.500000e-03, -1.875000e-02, 0.000000e+00
 50, 4.500000e-03, -1.875000e-02, 6.666667e-03
 51, 4.500000e-03, -1.875000e-02, 1.333333e-02
 52, 4.500000e-03, -1.875000e-02, 2.000000e-02
 53, 5.500000e-03, -1.875000e-02, 0.000000e+00
 54, 5.500000e-03, -1.875000e-02, 6.666667e-03
 55, 5.500000e-03, -1.875000e-02, 1.333333e-02
 56, 5.500000e-03, -1.875000e-02, 2.000000e-02
 57, 6.500000e-03, -1.875000e-02, 0.000000e+00
 58, 6.500000e-03, -1.875000e-02, 6.666667e-03
 59, 6.500000e-03, -1.875000e-02, 1.333333e-02
 60, 6.500000e-03, -1.875000e-02, 2.000000e-02
 61, 7.500000e-03, -1.875000e-02, 0.000000e+00
 62, 7.500000e-03, -1.875000e-02, 6.666667e-03
 63, 7.500000e-03, -1.875000e-02, 1.333333e-02
 64, 7.500000e-03, -1.875000e-02, 2.000000e-02
 65, 4.500000e-03, -1.500000e-02, 0.000000e+00
 66, 4.500000e-03, -1.500000e-02, 6.666667e-03
 67, 4.500000e-03, -1.500000e-02, 1.333333e-02
 68, 4.500000e-03, -1.500000e-02, 2.000000e-02
 69, 5.500000e-03, -1.500000e-02, 0.000000e+00
 70, 5.500000e-03, -1.500000e-02, 6.666667e-03
 71, 5.500000e-03, -1.500000e-02, 1.333333e-02
 72, 5.500000e-03, -1.500000e-02, 2.000000e-02
 73, 6.500000e-03, -1.500000e-02, 0.000000e+00
 74, 6.500000e-03, -1.500000e-02, 6.666667e-03
 75, 6.500000e-03, -1.500000e-02, 1.333333e-02
 76, 6.500000e-03, -1.500000e-02, 2.000000e-02
 77, 7.500000e-03, -1.500000e-02, 0.000000e+00
 78, 7.500000e-03, -1.500000e-02, 6.666667e-03
 79, 7.500000e-03, -1.500000e-02, 1.333333e-02
 80, 7.500000e-03, -1.500000e-02, 2.000000e-02
 81, 4.500000e-03, -1.125000e-02, 0.000000e+00
 82, 4.500000e-03, -1.125000e-02, 6.666667e-03
 83, 4.500000e-03, -1.125000e-02, 1.333333e-02
 84, 4.500000e-03, -1.125000e-02, 2.000000e-02
 85, 5.500000e-03, -1.125000e-02, 0.000000e+00
 86, 5.500000e-03, -1.125000e-02, 6.666667e-03
 87, 5.500000e-03, -1.125000e-02, 1.333333e-02
 88, 5.500000e-03, -1.125000e-02, 2.000000e-02
 89, 6.500000e-03, -1.125000e-02, 0.000000e+00
 90, 6.500000e-03, -1.125000e-02, 6.666667e-03
 91, 6.500000e-03, -1.125000e-02, 1.333333e-02
 92, 6.500000e-03, -1.125000e-02, 2.000000e-02
 93, 7.500000e-03, -1.125000e-02, 0.000000e+00
 94, 7.500000e-03, -1.125000e-02, 6.666667e-03
 95, 7.500000e-03, -1.125000e-02, 1.333333e-02
 96, 7.500000e-03, -1.125000e-02, 2.000000e-02
 97, 4.500000e-03, -7.500000e-03, 0.000000e+00
 98, 4.500000e-03, -7.500000e-03, 6.666667e-03
 99, 4.500000e-03, -7.500000e-03, 1.333333e-02
 100, 4.500000e-03, -7.500000e-03, 2.000000e-02
 101, 5.500000e-03, -7.500000e-03, 0.000000e+00
 102, 5.500000e-03, -7.500000e-03, 6.666667e-03
 103, 5.500000e-03, -7.500000e-03, 1.333333e-02
 104, 5.500000e-03, -7.500000e-03, 2.000000e-02
 105, 6.500000e-03, -7.500000e-03, 0.000000e+00
 106, 6.500000e-03, -7.500000e-03, 6.666667e-03
 107, 6.500000e-03, -7.500000e-03, 1.333333e-02
 108, 6.500000e-03, -7.500000e-03, 2.000000e-02
 109, 7.500000e-03, -7.500000e-03, 0.000000e+00
 110, 7.500000e-03, -7.500000e-03, 6.666667e-03
 111, 7.500000e-03, -7.500000e-03, 1.333333e-02
 112, 7.500000e-03, -7.500000e-03, 2.000000e-02
 113, 4.500000e-03, -3.750000e-03, 0.000000e+00
 114, 4.500000e-03, -3.750000e-03, 6.666667e-03
 115, 4.500000e-03, -3.750000e-03, 1.333333e-02
 116, 4.500000e-03, -3.750000e-03, 2.000000e-02
 117, 5.500000e-03, -3.750000e-03, 0.000000e+00
 118, 5.500000e-03, -3.750000e-03, 6.666667e-03
 119, 5.500000e-03, -3.750000e-03, 1.333333e-02
 120, 5.500000e-03, -3.750000e-03, 2.000000e-02
 121, 6.500000e-03, -3.750000e-03, 0.000000e+00
 122, 6.500000e-03, -3.750000e-03, 6.666667e-03
 123, 6.500000e-03, -3.750000e-03, 1.333333e-02
 124, 6.500000e-03, -3.750000e-03, 2.000000e-02
 125, 7.500000e-03, -3.750000e-03, 0.000000e+00
 126, 7.500000e-03, -3.750000e-03, 6.666667e-03
 127, 7.500000e-03, -3.750000e-03, 1.333333e-02
 128, 7.500000e-03, -3.750000e-03, 2.000000e-02
 129, 4.500000e-03, -0.000000e+00, 0.000000e+00
 130, 4.500000e-03, -0.000000e+00, 6.666667e-03
 131, 4.500000e-03, -0.000000e+00, 1.333333e-02
 132, 4.500000e-03, -0.000000e+00, 2.000000e-02
 133, 5.500000e-03, -0.000000e+00, 0.000000e+00
 134, 5.500000e-03, -0.000000e+00, 6.666667e-03
 135, 5.500000e-03, -0.000000e+00, 1.333333e-02
 136, 5.500000e-03, -0.000000e+00, 2.000000e-02
 137, 6.500000e-03, 0.000000e+00, 0.000000e+00
 138, 6.500000e-03, 0.000000e+00, 6.666667e-03
 139, 6.500000e-03, 0.000000e+00, 1.333333e-02
 140, 6.500000e-03, 0.000000e+00, 2.000000e-02
 141, 7.500000e-03, 0.000000e+00, 0.000000e+00
 142, 7.500000e-03, 0.000000e+00, 6.666667e-03
 143, 7.500000e-03, 0.000000e+00, 1.333333e-02
 144, 7.500000e-03, 0.000000e+00, 2.000000e-02
 145, 4.346666e-03, 1.164686e-03, 0.000000e+00
 146, 4.346666e-03, 1.164686e-03, 6.666667e-03
 147, 4.346666e-03, 1.164686e-03, 1.333333e-02
 148, 4.346666e-03, 1.164686e-03, 2.000000e-02
 149, 5.312592e-03, 1.423505e-03, 0.000000e+00
 150, 5.312592e-03, 1.423505e-03, 6.666667e-03
 151, 5.312592e-03, 1.423505e-03, 1.333333e-02
 152, 5.312592e-03, 1.423505e-03, 2.000000e-02
 153, 6.278518e-03, 1.682324e-03, 0.000000e+00
 154, 6.278518e-03, 1.682324e-03, 6.666667e-03
 155, 6.278518e-03, 1.682324e-03, 1.333333e-02
 156, 6.278518e-03, 1.682324e-03, 2.000000e-02
 157, 7.244444e-03, 1.941143e-03, 0.000000e+00
 158, 7.244444e-03, 1.941143e-03, 6.666667e-03
 159, 7.244444e-03, 1.941143e-03, 1.333333e-02
 160, 7.244444e-03, 1.941143e-03, 2.000000e-02
 161, 3.897114e-03, 2.250000e-03, 0.000000e+00
 162, 3.897114e-03, 2.250000e-03, 6.666667e-03
 163, 3.897114e-03, 2.250000e-03, 1.333333e-02
 164, 3.897114e-03, 2.250000e-03, 2.000000e-02
 165, 4.763140e-03, 2.750000e-03, 0.000000e+00
 166, 4.763140e-03, 2.750000e-03, 6.666667e-03
 167, 4.763140e-03, 2.750000e-03, 1.333333e-02
 168, 4.763140e-03, 2.750000e-03, 2.000000e-02
 169, 5.629165e-03, 3.250000e-03, 0.000000e+00
 170, 5.629165e-03, 3.250000e-03, 6.666667e-03
 171, 5.629165e-03, 3.250000e-03, 1.333333e-02
 172, 5.629165e-03, 3.250000e-03, 2.000000e-02
 173, 6.495191e-03, 3.750000e-03, 0.000000e+00
 174, 6.495191e-03, 3.750000e-03, 6.666667e-03
 175, 6.495191e-03, 3.750000e-03, 1.333333e-02
 176, 6.495191e-03, 3.750000e-03, 2.000000e-02
 177, 3.181981e-03, 3.181981e-03, 0.000000e+00
 178, 3.181981e-03, 3.181981e-03, 6.666667e-03
 179, 3.181981e-03, 3.181981e-03, 1.333333e-02
 180, 3.181981e-03, 3.181981e-03, 2.000000e-02
 181, 3.889087e-03, 3.889087e-03, 0.000000e+00
 182, 3.889087e-03, 3.889087e-03, 6.666667e-03
 183, 3.889087e-03, 3.889087e-03, 1.333333e-02
 184, 3.889087e-03, 3.889087e-03, 2.000000e-02
 185, 4.596194e-03, 4.596194e-03, 0.000000e+00
 186, 4.596194e-03, 4.596194e-03, 6.666667e-03
 187, 4.596194e-03, 4.596194e-03, 1.333333e-02
 188, 4.596194e-03, 4.596194e-03, 2.000000e-02
 189, 5.303301e-03, 5.303301e-03, 0.000000e+00
 190, 5.303301e-03, 5.303301e-03, 6.666667e-03
 191, 5.303301e-03, 5.303301e-03, 1.333333e-02
 192, 5.303301e-03, 5.303301e-03, 2.000000e-02
 193, 2.250000e-03, 3.897114e-03, 0.000000e+00
 194, 2.250000e-03, 3.897114e-03, 6.666667e-03
 195, 2.250000e-03, 3.897114e-03, 1.333333e-02
 196, 2.250000e-03, 3.897114e-03, 2.000000e-02
 197, 2.750000e-03, 4.763140e-03, 0.000000e+00
 198, 2.750000e-03, 4.763140e-03, 6.666667e-03
 199, 2.750000e-03, 4.763140e-03, 1.333333e-02
 200, 2.750000e-03, 4.763140e-03, 2.000000e-02
 201, 3.250000e-03, 5.629165e-03, 0.000000e+00
 202, 3.250000e-03, 5.629165e-03, 6.666667e-03
 203, 3.250000e-03, 5.629165e-03, 1.333333e-02
 204, 3.250000e-03, 5.629165e-03, 2.000000e-02
 205, 3.750000e-03, 6.495191e-03, 0.000000e+00
 206, 3.750000e-03, 6.495191e-03, 6.666667e-03
 207, 3.750000e-03, 6.495191e-03, 1.333333e-02
 208, 3.750000e-03, 6.495191e-03, 2.000000e-02
 209, 1.164686e-03, 4.346666e-03, 0.000000e+00
 210, 1.164686e-03, 4.346666e-03, 6.666667e-03
 211, 1.164686e-03, 4.346666e-03, 1.333333e-02
 212, 1.164686e-03, 4.346666e-03, 2.000000e-02
 213, 1.423505e-03, 5.312592e-03, 0.000000e+00
 214, 1.423505e-03, 5.312592e-03, 6.666667e-03
 215, 1.423505e-03, 5.312592e-03, 1.333333e-02
 216, 1.423505e-03, 5.312592e-03, 2.000000e-02
 217, 1.682324e-03, 6.278518e-03, 0.000000e+00
 218, 1.682324e-03, 6.278518e-03, 6.666667e-03
 219, 1.682324e-03, 6.278518e-03, 1.333333e-02
 220, 1.682324e-03, 6.278518e-03, 2.000000e-02
 221, 1.941143e-03, 7.244444e-03, 0.000000e+00
 222, 1.941143e-03, 7.244444e-03, 6.666667e-03
 223, 1.941143e-03, 7.244444e-03, 1.333333e-02
 224, 1.941143e-03, 7.244444e-03, 2.000000e-02
 225, 3.273148e-18, 4.500000e-03, 0.000000e+00
 226, 3.273148e-18, 4.500000e-03, 6.666667e-03
 227, 3.273148e-18, 4.500000e-03, 1.333333e-02
 228, 3.273148e-18, 4.500000e-03, 2.000000e-02
 229, 4.000514e-18, 5.500000e-03, 0.000000e+00
 230, 4.000514e-18, 5.500000e-03, 6.666667e-03
 231, 4.000514e-18, 5.500000e-03, 1.333333e-02
 232, 4.000514e-18, 5.500000e-03, 2.000000e-02
 233, 4.727880e-18, 6.500000e-03, 0.000000e+00
 234, 4.727880e-18, 6.500000e-03, 6.666667e-03
 235, 4.727880e-18, 6.500000e-03, 1.333333e-02
 236, 4.727880e-18, 6.500000e-03, 2.000000e-02
 237, 5.455246e-18, 7.500000e-03, 0.000000e+00
 238, 5.455246e-18, 7.500000e-03, 6.666667e-03
 239, 5.455246e-18, 7.500000e-03, 1.333333e-02
 240, 5.455246e-18, 7.500000e-03, 2.000000e-02
 241, -3.750000e-03, 4.500000e-03, 0.000000e+00
 242, -3.750000e-03, 4.500000e-03, 6.666667e-03
 243, -3.750000e-03, 4.500000e-03, 1.333333e-02
 244, -3.750000e-03, 4.500000e-03, 2.000000e-02
 245, -3.750000e-03, 5.500000e-03, 0.000000e+00
 246, -3.750000e-03, 5.500000e-03, 6.666667e-03
 247, -3.750000e-03, 5.500000e-03, 1.333333e-02
 248, -3.750000e-03, 5.500000e-03, 2.000000e-02
 249, -3.750000e-03, 6.500000e-03, 0.000000e+00
 250, -3.750000e-03, 6.500000e-03, 6.666667e-03
 251, -3.750000e-03, 6.500000e-03, 1.333333e-02
 252, -3.750000e-03, 6.500000e-03, 2.000000e-02
 253, -3.750000e-03, 7.500000e-03, 0.000000e+00
 254, -3.750000e-03, 7.500000e-03, 6.666667e-03
 255, -3.750000e-03, 7.500000e-03, 1.333333e-02
 256, -3.750000e-03, 7.500000e-03, 2.000000e-02
 257, -7.500000e-03, 4.500000e-03, 0.000000e+00
 258, -7.500000e-03, 4.500000e-03, 6.666667e-03
 259, -7.500000e-03, 4.500000e-03, 1.333333e-02
 260, -7.500000e-03, 4.500000e-03, 2.000000e-02
 261, -7.500000e-03, 5.500000e-03, 0.000000e+00
 262, -7.500000e-03, 5.500000e-03, 6.666667e-03
 263, -7.500000e-03, 5.500000e-03, 1.333333e-02
 264, -7.500000e-03, 5.500000e-03, 2.000000e-02
 265, -7.500000e-03, 6.500000e-03, 0.000000e+00
 266, -7.500000e-03, 6.500000e-03, 6.666667e-03
 267, -7.500000e-03, 6.500000e-03, 1.333333e-02
 268, -7.500000e-03, 6.500000e-03, 2.000000e-02
 269, -7.500000e-03, 7.500000e-03, 0.000000e+00
 270, -7.500000e-03, 7.500000e-03, 6.666667e-03
 271, -7.500000e-03, 7.500000e-03, 1.333333e-02
 272, -7.500000e-03, 7.500000e-03, 2.000000e-02
 273, -1.125000e-02, 4.500000e-03, 0.000000e+00
 274, -1.125000e-02, 4.500000e-03, 6.666667e-03
 275, -1.125000e-02, 4.500000e-03, 1.333333e-02
 276, -1.125000e-02, 4.500000e-03, 2.000000e-02
 277, -1.125000e-02, 5.500000e-03, 0.000000e+00
 278, -1.125000e-02, 5.500000e-03, 6.666667e-03
 279, -1.125000e-02, 5.500000e-03, 1.333333e-02
 280, -1.125000e-02, 5.500000e-03, 2.000000e-02
 281, -1.125000e-02, 6.500000e-03, 0.000000e+00
 282, -1.125000e-02, 6.500000e-03, 6.666667e-03
 283, -1.125000e-02, 6.500000e-03, 1.333333e-02
 284, -1.125000e-02, 6.500000e-03, 2.000000e-02
 285, -1.125000e-02, 7.500000e-03, 0.000000e+00
 286, -1.125000e-02, 7.500000e-03, 6.666667e-03
 287, -1.125000e-02, 7.500000e-03, 1.333333e-02
 288, -1.125000e-02, 7.500000e-03, 2.000000e-02
 289, -1.500000e-02, 4.500000e-03, 0.000000e+00
 290, -1.500000e-02, 4.500000e-03, 6.666667e-03
 291, -1.500000e-02, 4.500000e-03, 1.333333e-02
 292, -1.500000e-02, 4.500000e-03, 2.000000e-02
 293, -1.500000e-02, 5.500000e-03, 0.000000e+00
 294, -1.500000e-02, 5.500000e-03, 6.666667e-03
 295, -1.500000e-02, 5.500000e-03, 1.333333e-02
 296, -1.500000e-02, 5.500000e-03, 2.000000e-02
 297, -1.500000e-02, 6.500000e-03, 0.000000e+00
 298, -1.500000e-02, 6.500000e-03, 6.666667e-03
 299, -1.500000e-02, 6.500000e-03, 1.333333e-02
 300, -1.500000e-02, 6.500000e-03, 2.000000e-02
 301, -1.500000e-02, 7.500000e-03, 0.000000e+00
 302, -1.500000e-02, 7.500000e-03, 6.666667e-03
 303, -1.500000e-02, 7.500000e-03, 1.333333e-02
 304, -1.500000e-02, 7.500000e-03, 2.000000e-02
 305, -1.875000e-02, 4.500000e-03, 0.000000e+00
 306, -1.875000e-02, 4.500000e-03, 6.666667e-03
 307, -1.875000e-02, 4.500000e-03, 1.333333e-02
 308, -1.875000e-02, 4.500000e-03, 2.000000e-02
 309, -1.875000e-02, 5.500000e-03, 0.000000e+00
 310, -1.875000e-02, 5.500000e-03, 6.666667e-03
 311, -1.875000e-02, 5.500000e-03, 1.333333e-02
 312, -1.875000e-02, 5.500000e-03, 2.000000e-02
 313, -1.875000e-02, 6.500000e-03, 0.000000e+00
 314, -1.875000e-02, 6.500000e-03, 6.666667e-03
 315, -1.875000e-02, 6.500000e-03, 1.333333e-02
 316, -1.875000e-02, 6.500000e-03, 2.000000e-02
 317, -1.875000e-02, 7.500000e-03, 0.000000e+00
 318, -1.875000e-02, 7.500000e-03, 6.666667e-03
 319, -1.875000e-02, 7.500000e-03, 1.333333e-02
 320, -1.875000e-02, 7.500000e-03, 2.000000e-02
 321, -2.250000e-02, 4.500000e-03, 0.000000e+00
 322, -2.250000e-02, 4.500000e-03, 6.666667e-03
 323, -2.250000e-02, 4.500000e-03, 1.333333e-02
 324, -2.250000e-02, 4.500000e-03, 2.000000e-02
 325, -2.250000e-02, 5.500000e-03, 0.000000e+00
 326, -2.250000e-02, 5.500000e-03, 6.666667e-03
 327, -2.250000e-02, 5.500000e-03, 1.333333e-02
 328, -2.250000e-02, 5.500000e-03, 2.000000e-02
 329, -2.250000e-02, 6.500000e-03, 0.000000e+00
 330, -2.250000e-02, 6.500000e-03, 6.666667e-03
 331, -2.250000e-02, 6.500000e-03, 1.333333e-02
 332, -2.250000e-02, 6.500000e-03, 2.000000e-02
 333, -2.250000e-02, 7.500000e-03, 0.000000e+00
 334, -2.250000e-02, 7.500000e-03, 6.666667e-03
 335, -2.250000e-02, 7.500000e-03, 1.333333e-02
 336, -2.250000e-02, 7.500000e-03, 2.000000e-02
 337, -2.625000e-02, 4.500000e-03, 0.000000e+00
 338, -2.625000e-02, 4.500000e-03, 6.666667e-03
 339, -2.625000e-02, 4.500000e-03, 1.333333e-02
 340, -2.625000e-02, 4.500000e-03, 2.000000e-02
 341, -2.625000e-02, 5.500000e-03, 0.000000e+00
 342, -2.625000e-02, 5.500000e-03, 6.666667e-03
 343, -2.625000e-02, 5.500000e-03, 1.333333e-02
 344, -2.625000e-02, 5.500000e-03, 2.000000e-02
 345, -2.625000e-02, 6.500000e-03, 0.000000e+00
 346, -2.625000e-02, 6.500000e-03, 6.666667e-03
 347, -2.625000e-02, 6.500000e-03, 1.333333e-02
 348, -2.625000e-02, 6.500000e-03, 2.000000e-02
 349, -2.625000e-02, 7.500000e-03, 0.000000e+00
 350, -2.625000e-02, 7.500000e-03, 6.666667e-03
 351, -2.625000e-02, 7.500000e-03, 1.333333e-02
 352, -2.625000e-02, 7.500000e-03, 2.000000e-02
 353, -3.000000e-02, 4.500000e-03, 0.000000e+00
 354, -3.000000e-02, 4.500000e-03, 6.666667e-03
 355, -3.000000e-02, 4.500000e-03, 1.333333e-02
 356, -3.000000e-02, 4.500000e-03, 2.000000e-02
 357, -3.000000e-02, 5.500000e-03, 0.000000e+00
 358, -3.000000e-02, 5.500000e-03, 6.666667e-03
 359, -3.000000e-02, 5.500000e-03, 1.333333e-02
 360, -3.000000e-02, 5.500000e-03, 2.000000e-02
 361, -3.000000e-02, 6.500000e-03, 0.000000e+00
 362, -3.000000e-02, 6.500000e-03, 6.666667e-03
 363, -3.000000e-02, 6.500000e-03, 1.333333e-02
 364, -3.000000e-02, 6.500000e-03, 2.000000e-02
 365, -3.000000e-02, 7.500000e-03, 0.000000e+00
 366, -3.000000e-02, 7.500000e-03, 6.666667e-03
 367, -3.000000e-02, 7.500000e-03, 1.333333e-02
 368, -3.000000e-02, 7.500000e-03, 2.000000e-02
*ELEMENT, TYPE=C3D8, ELSET=EALL
 1, 1, 17, 18, 2, 5, 21, 22, 6
 2, 2, 18, 19, 3, 6, 22, 23, 7
 3, 3, 19, 20, 4, 7, 23, 24, 8
 4, 5, 21, 22, 6, 9, 25, 26, 10
 5, 6, 22, 23, 7, 10, 26, 27, 11
 6, 7, 23, 24, 8, 11, 27, 28, 12
 7, 9, 25, 26, 10, 13, 29, 30, 14
 8, 10, 26, 27, 11, 14, 30, 31, 15
 9, 11, 27, 28, 12, 15, 31, 32, 16
 10, 17, 33, 34, 18, 21, 37, 38, 22
 11, 18, 34, 35, 19, 22, 38, 39, 23
 12, 19, 35, 36, 20, 23, 39, 40, 24
 13, 21, 37, 38, 22, 25, 41, 42, 26
 14, 22, 38, 39, 23, 26, 42, 43, 27
 15, 23, 39, 40, 24, 27, 43, 44, 28
 16, 25, 41, 42, 26, 29, 45, 46, 30
 17, 26, 42, 43, 27, 30, 46, 47, 31
 18, 27, 43, 44, 28, 31, 47, 48, 32
 19, 33, 49, 50, 34, 37, 53, 54, 38
 20, 34, 50, 51, 35, 38, 54, 55, 39
 21, 35, 51, 52, 36, 39, 55, 56, 40
 22, 37, 53, 54, 38, 41, 57, 58, 42
 23, 38, 54, 55, 39, 42, 58, 59, 43
 24, 39, 55, 56, 40, 43, 59, 60, 44
 25, 41, 57, 58, 42, 45, 61, 62, 46
 26, 42, 58, 59, 43, 46, 62, 63, 47
 27, 43, 59, 60, 44, 47, 63, 64, 48
 28, 49, 65, 66, 50, 53, 69, 70, 54
 29, 50, 66, 67, 51, 54, 70, 71, 55
 30, 51, 67, 68, 52, 55, 71, 72, 56
 31, 53, 69, 70, 54, 57, 73, 74, 58
 32, 54, 70, 71, 55, 58, 74, 75, 59
 33, 55, 71, 72, 56, 59, 75, 76, 60
 34, 57, 73, 74, 58, 61, 77, 78, 62
 35, 58, 74, 75, 59, 62, 78, 79, 63
 36, 59, 75, 76, 60, 63, 79, 80, 64
 37, 65, 81, 82, 66, 69, 85, 86, 70
 38, 66, 82, 83, 67, 70, 86, 87, 71
 39, 67, 83, 84, 68, 71, 87, 88, 72
 40, 69, 85, 86, 70, 73, 89, 90, 74
 41, 70, 86, 87, 71, 74, 90, 91, 75
 42, 71, 87, 88, 72, 75, 91, 92, 76
 43, 73, 89, 90, 74, 77, 93, 94, 78
 44, 74, 90, 91, 75, 78, 94, 95, 79
 45, 75, 91, 92, 76, 79, 95, 96, 80
 46, 81, 97, 98, 82, 85, 101, 102, 86
 47, 82, 98, 99, 83, 86, 102, 103, 87
 48, 83, 99, 100, 84, 87, 103, 104, 88
 49, 85, 101, 102, 86, 89, 105, 106, 90
 50, 86, 102, 103, 87, 90, 106, 107, 91
 51, 87, 103, 104, 88, 91, 107, 108, 92
 52, 89, 105, 106, 90, 93, 109, 110, 94
 53, 90, 106, 107, 91, 94, 110, 111, 95
 54, 91, 107, 108, 92, 95, 111, 112, 96
 55, 97, 113, 114, 98, 101, 117, 118, 102
 56, 98, 114, 115, 99, 102, 118, 119, 103
 57, 99, 115, 116, 100, 103, 119, 120, 104
 58, 101, 117, 118, 102, 105, 121, 122, 106
 59, 102, 118, 119, 103, 106, 122, 123, 107
 60, 103, 119, 120, 104, 107, 123, 124, 108
 61, 105, 121, 122, 106, 109, 125, 126, 110
 62, 106, 122, 123, 107, 110, 126, 127, 111
 63, 107, 123, 124, 108, 111, 127, 128, 112
 64, 113, 129, 130, 114, 117, 133, 134, 118
 65, 114, 130, 131, 115, 118, 134, 135, 119
 66, 115, 131, 132, 116, 119, 135, 136, 120
 67, 117, 133, 134, 118, 121, 137, 138, 122
 68, 118, 134, 135, 119, 122, 138, 139, 123
 69, 119, 135, 136, 120, 123, 139, 140, 124
 70, 121, 137, 138, 122, 125, 141, 142, 126
 71, 122, 138, 139, 123, 126, 142, 143, 127
 72, 123, 139, 140, 124, 127, 143, 144, 128
 73, 129, 145, 146, 130, 133, 149, 150, 134
 74, 130, 146, 147, 131, 134, 150, 151, 135
 75, 131, 147, 148, 132, 135, 151, 152, 136
 76, 133, 149, 150, 134, 137, 153, 154, 138
 77, 134, 150, 151, 135, 138, 154, 155, 139
 78, 135, 151, 152, 136, 139, 155, 156, 140
 79, 137, 153, 154, 138, 141, 157, 158, 142
 80, 138, 154, 155, 139, 142, 158, 159, 143
 81, 139, 155, 156, 140, 143, 159, 160, 144
 82, 145, 161, 162, 146, 149, 165, 166, 150
 83, 146, 162, 163, 147, 150, 166, 167, 151
 84, 147, 163, 164, 148, 151, 167, 168, 152
 85, 149, 165, 166, 150, 153, 169, 170, 154
 86, 150, 166, 167, 151, 154, 170, 171, 155
 87, 151, 167, 168, 152, 155, 171, 172, 156
 88, 153, 169, 170, 154, 157, 173, 174, 158
 89, 154, 170, 171, 155, 158, 174, 175, 159
 90, 155, 171, 172, 156, 159, 175, 176, 160
 91, 161, 177, 178, 162, 165, 181, 182, 166
 92, 162, 178, 179, 163, 166, 182, 183, 167
 93, 163, 179, 180, 164, 167, 183, 184, 168
 94, 165, 181, 182, 166, 169, 185, 186, 170
 95, 166, 182, 183, 167, 170, 186, 187, 171
 96, 167, 183, 184, 168, 171, 187, 188, 172
 97, 169, 185, 186, 170, 173, 189, 190, 174
 98, 170, 186, 187, 171, 174, 190, 191, 175
 99, 171, 187, 188, 172, 175, 191, 192, 176
 100, 177, 193, 194, 178, 181, 197, 198, 182
 101, 178, 194, 195, 179, 182, 198, 199, 183
 102, 179, 195, 196, 180, 183, 199, 200, 184
 103, 181, 197, 198, 182, 185, 201, 202, 186
 104, 182, 198, 199, 183, 186, 202, 203, 187
 105, 183, 199, 200, 184, 187, 203, 204, 188
 106, 185, 201, 202, 186, 189, 205, 206, 190
 107, 186, 202, 203, 187, 190, 206, 207, 191
 108, 187, 203, 204, 188, 191, 207, 208, 192
 109, 193, 209, 210, 194, 197, 213, 214, 198
 110, 194, 210, 211, 195, 198, 214, 215, 199
 111, 195, 211, 212, 196, 199, 215, 216, 200
 112, 197, 213, 214, 198, 201, 217, 218, 202
 113, 198, 214, 215, 199, 202, 218, 219, 203
 114, 199, 215, 216, 200, 203, 219, 220, 204
 115, 201, 217, 218, 202, 205, 221, 222, 206
 116, 202, 218, 219, 203, 206, 222, 223, 207
 117, 203, 219, 220, 204, 207, 223, 224, 208
 118, 209, 225, 226, 210, 213, 229, 230, 214
 119, 210, 226, 227, 211, 214, 230, 231, 215
 120, 211, 227, 228, 212, 215, 231, 232, 216
 121, 213, 229, 230, 214, 217, 233, 234, 218
 122, 214, 230, 231, 215, 218, 234, 235, 219
 123, 215, 231, 232, 216, 219, 235, 236, 220
 124, 217, 233, 234, 218, 221, 237, 238, 222
 125, 218, 234, 235, 219, 222, 238, 239, 223
 126, 219, 235, 236, 220, 223, 239, 240, 224
 127, 225, 241, 242, 226, 229, 245, 246, 230
 128, 226, 242, 243, 227, 230, 246, 247, 231
 129, 227, 243, 244, 228, 231, 247, 248, 232
 130, 229, 245, 246, 230, 233, 249, 250, 234
 131, 230, 246, 247, 231, 234, 250, 251, 235
 132, 231, 247, 248, 232, 235, 251, 252, 236
 133, 233, 249, 250, 234, 237, 253, 254, 238
 134, 234, 250, 251, 235, 238, 254, 255, 239
 135, 235, 251, 252, 236, 239, 255, 256, 240
 136, 241, 257, 258, 242, 245, 261, 262, 246
 137, 242, 258, 259, 243, 246, 262, 263, 247
 138, 243, 259, 260, 244, 247, 263, 264, 248
 139, 245, 261, 262, 246, 249, 265, 266, 250
 140, 246, 262, 263, 247, 250, 266, 267, 251
 141, 247, 263, 264, 248, 251, 267, 268, 252
 142, 249, 265, 266, 250, 253, 269, 270, 254
 143, 250, 266, 267, 251, 254, 270, 271, 255
 144, 251, 267, 268, 252, 255, 271, 272, 256
 145, 257, 273, 274, 258, 261, 277, 278, 262
 146, 258, 274, 275, 259, 262, 278, 279, 263
 147, 259, 275, 276, 260, 263, 279, 280, 264
 148, 261, 277, 278, 262, 265, 281, 282, 266
 149, 262, 278, 279, 263, 266, 282, 283, 267
 150, 263, 279, 280, 264, 267, 283, 284, 268
 151, 265, 281, 282, 266, 269, 285, 286, 270
 152, 266, 282, 283, 267, 270, 286, 287, 271
 153, 267, 283, 284, 268, 271, 287, 288, 272
 154, 273, 289, 290, 274, 277, 293, 294, 278
 155, 274, 290, 291, 275, 278, 294, 295, 279
 156, 275, 291, 292, 276, 279, 295, 296, 280
 157, 277, 293, 294, 278, 281, 297, 298, 282
 158, 278, 294, 295, 279, 282, 298, 299, 283
 159, 279, 295, 296, 280, 283, 299, 300, 284
 160, 281, 297, 298, 282, 285, 301, 302, 286
 161, 282, 298, 299, 283, 286, 302, 303, 287
 162, 283, 299, 300, 284, 287, 303, 304, 288
 163, 289, 305, 306, 290, 293, 309, 310, 294
 164, 290, 306, 307, 291, 294, 310, 311, 295
 165, 291, 307, 308, 292, 295, 311, 312, 296
 166, 293, 309, 310, 294, 297, 313, 314, 298
 167, 294, 310, 311, 295, 298, 314, 315, 299
 168, 295, 311, 312, 296, 299, 315, 316, 300
 169, 297, 313, 314, 298, 301, 317, 318, 302
 170, 298, 314, 315, 299, 302, 318, 319, 303
 171, 299, 315, 316, 300, 303, 319, 320, 304
 172, 305, 321, 322, 306, 309, 325, 326, 310
 173, 306, 322, 323, 307, 310, 326, 327, 311
 174, 307, 323, 324, 308, 311, 327, 328, 312
 175, 309, 325, 326, 310, 313, 329, 330, 314
 176, 310, 326, 327, 311, 314, 330, 331, 315
 177, 311, 327, 328, 312, 315, 331, 332, 316
 178, 313, 329, 330, 314, 317, 333, 334, 318
 179, 314, 330, 331, 315, 318, 334, 335, 319
 180, 315, 331, 332, 316, 319, 335, 336, 320
 181, 321, 337, 338, 322, 325, 341, 342, 326
 182, 322, 338, 339, 323, 326, 342, 343, 327
 183, 323, 339, 340, 324, 327, 343, 344, 328
 184, 325, 341, 342, 326, 329, 345, 346, 330
 185, 326, 342, 343, 327, 330, 346, 347, 331
 186, 327, 343, 344, 328, 331, 347, 348, 332
 187, 329, 345, 346, 330, 333, 349, 350, 334
 188, 330, 346, 347, 331, 334, 350, 351, 335
 189, 331, 347, 348, 332, 335, 351, 352, 336
 190, 337, 353, 354, 338, 341, 357, 358, 342
 191, 338, 354, 355, 339, 342, 358, 359, 343
 192, 339, 355, 356, 340, 343, 359, 360, 344
 193, 341, 357, 358, 342, 345, 361, 362, 346
 194, 342, 358, 359, 343, 346, 362, 363, 347
 195, 343, 359, 360, 344, 347, 363, 364, 348
 196, 345, 361, 362, 346, 349, 365, 366, 350
 197, 346, 362, 363, 347, 350, 366, 367, 351
 198, 347, 363, 364, 348, 351, 367, 368, 352
**
*ORIENTATION, NAME=ORI0, DEFINITION=COORDINATES
 1.0, 0.0, 0.0,  0.0, 1.0, 0.0
 3, 0.0
*SOLID SECTION, ELSET=EALL, MATERIAL=DAIKINPFA, ORIENTATION=ORI0
**
*MATERIAL, NAME=DAIKINPFA
*DEPVAR
 23,
1, alpha, relative crystallinity
2, g_chile, stiffness fraction
3, smax, max abs sigma11
4, aT, WLF shift
5, aX, crystallinity shift
*USER MATERIAL, CONSTANTS=32
** E1 E2 E3  NU12 NU13 NU23  G12 G13   (CF/PFA, matrix-dominated E2)
 120.0e9, 7.0e9, 7.0e9, 0.30, 0.30, 0.45, 3.5e9, 3.5e9,
** G23  A1 A2 A3  BETA  NAVRAMI K0[1/s] USTAR[K]  (A2=A3 HIGH fluoro CTE)
 2.4e9, -0.3e-6, 100.0e-6, 100.0e-6, -5.0e-3, 2.5, 1.0e6, 755.0,
** KG[K^2] TM0[C] TINF[C]  AGEL G0 GINF  G1 TAU1[s]   (PFA: Tm~305, Tg~90)
 2.0e5, 315.0, 60.0, 0.1, 0.01, 0.3, 0.4, 5.0,
** G2 TAU2[s] G3 TAU3[s]  WLF_C1 WLF_C2 WLF_TREF(Tg,C)  BX
 0.2, 50.0, 0.1, 500.0, 17.4, 51.6, 90.0, 2.0
*INITIAL CONDITIONS, TYPE=TEMPERATURE
 NALL, 330.0
*INITIAL CONDITIONS, TYPE=SOLUTION
 EALL, 1.0e-3, 0.0, 0.0, 0.0, 0.0, 0.0, 0.0, 0.0,
 0.0, 0.0, 0.0, 0.0, 0.0, 0.0, 0.0, 0.0,
 0.0, 0.0, 0.0, 0.0, 0.0, 0.0, 0.0
**
*NSET, NSET=NA
 1,
*NSET, NSET=NB
 13,
*NSET, NSET=NC
 17,
*NSET, NSET=A_TIP
 6,
*NSET, NSET=A_ROOT
 134,
*NSET, NSET=B_ROOT
 230,
*NSET, NSET=B_TIP
 358,
*BOUNDARY
 NA, 1, 3, 0.0
 NB, 2, 3, 0.0
 NC, 3, 3, 0.0
**
*AMPLITUDE, NAME=MELTCOOL, TIME=TOTAL TIME
 0.0, 330.0, 60.0, 330.0, 1890.0, 25.0
*STEP, NLGEOM=YES, INC=2000
*STATIC
 5.0, 1890.0, 1.0e-2, 30.0
*TEMPERATURE, AMPLITUDE=MELTCOOL
 NALL, 1.0
*OUTPUT, FIELD
*ELEMENT OUTPUT
 S, E, SDV
*NODE OUTPUT
 U
*END STEP
