*HEADING
 CFRTP UMAT 1-element free-contraction sanity test -- Abaqus/Standard
 Single ply, 3-2-1 support, same cure cycle as cfrtp_cure_residual.inp.
 Expect residual sigma ~ 0 at every increment (nothing external restrains it).
**
*NODE, NSET=NALL
 1, 0.000000e+00, 0.000000e+00, 0.000000e+00
 2, 6.000000e-04, 0.000000e+00, 0.000000e+00
 3, 6.000000e-04, 6.000000e-04, 0.000000e+00
 4, 0.000000e+00, 6.000000e-04, 0.000000e+00
 5, 0.000000e+00, 0.000000e+00, 6.000000e-04
 6, 6.000000e-04, 0.000000e+00, 6.000000e-04
 7, 6.000000e-04, 6.000000e-04, 6.000000e-04
 8, 0.000000e+00, 6.000000e-04, 6.000000e-04
*ELEMENT, TYPE=C3D8, ELSET=EALL
 1, 1, 2, 3, 4, 5, 6, 7, 8
**
*ORIENTATION, NAME=ORI0, DEFINITION=COORDINATES
 1.0, 0.0, 0.0,  0.0, 1.0, 0.0
 3, 0.0
*SOLID SECTION, ELSET=EALL, MATERIAL=CFRTP, ORIENTATION=ORI0
**
*MATERIAL, NAME=CFRTP
*DEPVAR
 3,
1, alpha, degree of cure
2, g_chile, stiffness fraction
3, smax, max abs sigma11
*USER MATERIAL, CONSTANTS=20
 135.0e9, 9.0e9, 9.0e9, 0.30, 0.30, 0.45, 5.0e9, 5.0e9,
 3.0e9, -0.3e-6, 28.0e-6, 28.0e-6, -3.0e-3, 1.0e8, 5.5e4, 1.6,
 0.5, 0.02, 8.314, 273.15
*INITIAL CONDITIONS, TYPE=TEMPERATURE
 NALL, 25.0
*INITIAL CONDITIONS, TYPE=SOLUTION
 EALL, 0.0, 0.02, 0.0
**
*NSET, NSET=NA
 1,
*NSET, NSET=NB
 2,
*NSET, NSET=NC
 4,
*BOUNDARY
 NA, 1, 3, 0.0
 NB, 2, 2, 0.0
 NB, 3, 3, 0.0
 NC, 1, 1, 0.0
 NC, 3, 3, 0.0
**
*AMPLITUDE, NAME=CURECYCLE, TIME=TOTAL TIME
 0.0, 25.0, 0.25, 180.0, 0.55, 180.0, 1.0, 25.0
*STEP, NLGEOM=NO, INC=500
*STATIC
 0.005, 1.0, 1.0e-6, 0.02
*TEMPERATURE, AMPLITUDE=CURECYCLE
 NALL, 1.0
*OUTPUT, FIELD
*ELEMENT OUTPUT
 S, E, SDV
*NODE OUTPUT
 U
*END STEP
