*HEADING
 CFRTP 3D mixed-mode interlaminar delamination (COH3D8 + B-K)
 Two C3D8 sublaminates + cohesive layer. Generated by gen_inp.py.
**
*NODE, NSET=NALL
 1, 0.000000e+00, 0.000000e+00, 0.000000e+00
 2, 1.500000e-03, 0.000000e+00, 0.000000e+00
 3, 3.000000e-03, 0.000000e+00, 0.000000e+00
 4, 4.500000e-03, 0.000000e+00, 0.000000e+00
 5, 6.000000e-03, 0.000000e+00, 0.000000e+00
 6, 7.500000e-03, 0.000000e+00, 0.000000e+00
 7, 9.000000e-03, 0.000000e+00, 0.000000e+00
 8, 1.050000e-02, 0.000000e+00, 0.000000e+00
 9, 1.200000e-02, 0.000000e+00, 0.000000e+00
 10, 1.350000e-02, 0.000000e+00, 0.000000e+00
 11, 1.500000e-02, 0.000000e+00, 0.000000e+00
 12, 1.650000e-02, 0.000000e+00, 0.000000e+00
 13, 1.800000e-02, 0.000000e+00, 0.000000e+00
 14, 1.950000e-02, 0.000000e+00, 0.000000e+00
 15, 2.100000e-02, 0.000000e+00, 0.000000e+00
 16, 2.250000e-02, 0.000000e+00, 0.000000e+00
 17, 2.400000e-02, 0.000000e+00, 0.000000e+00
 18, 2.550000e-02, 0.000000e+00, 0.000000e+00
 19, 2.700000e-02, 0.000000e+00, 0.000000e+00
 20, 2.850000e-02, 0.000000e+00, 0.000000e+00
 21, 3.000000e-02, 0.000000e+00, 0.000000e+00
 22, 3.150000e-02, 0.000000e+00, 0.000000e+00
 23, 3.300000e-02, 0.000000e+00, 0.000000e+00
 24, 3.450000e-02, 0.000000e+00, 0.000000e+00
 25, 3.600000e-02, 0.000000e+00, 0.000000e+00
 26, 3.750000e-02, 0.000000e+00, 0.000000e+00
 27, 3.900000e-02, 0.000000e+00, 0.000000e+00
 28, 4.050000e-02, 0.000000e+00, 0.000000e+00
 29, 4.200000e-02, 0.000000e+00, 0.000000e+00
 30, 4.350000e-02, 0.000000e+00, 0.000000e+00
 31, 4.500000e-02, 0.000000e+00, 0.000000e+00
 32, 4.650000e-02, 0.000000e+00, 0.000000e+00
 33, 4.800000e-02, 0.000000e+00, 0.000000e+00
 34, 4.950000e-02, 0.000000e+00, 0.000000e+00
 35, 5.100000e-02, 0.000000e+00, 0.000000e+00
 36, 5.250000e-02, 0.000000e+00, 0.000000e+00
 37, 5.400000e-02, 0.000000e+00, 0.000000e+00
 38, 5.550000e-02, 0.000000e+00, 0.000000e+00
 39, 5.700000e-02, 0.000000e+00, 0.000000e+00
 40, 5.850000e-02, 0.000000e+00, 0.000000e+00
 41, 6.000000e-02, 0.000000e+00, 0.000000e+00
 42, 0.000000e+00, 6.666667e-03, 0.000000e+00
 43, 1.500000e-03, 6.666667e-03, 0.000000e+00
 44, 3.000000e-03, 6.666667e-03, 0.000000e+00
 45, 4.500000e-03, 6.666667e-03, 0.000000e+00
 46, 6.000000e-03, 6.666667e-03, 0.000000e+00
 47, 7.500000e-03, 6.666667e-03, 0.000000e+00
 48, 9.000000e-03, 6.666667e-03, 0.000000e+00
 49, 1.050000e-02, 6.666667e-03, 0.000000e+00
 50, 1.200000e-02, 6.666667e-03, 0.000000e+00
 51, 1.350000e-02, 6.666667e-03, 0.000000e+00
 52, 1.500000e-02, 6.666667e-03, 0.000000e+00
 53, 1.650000e-02, 6.666667e-03, 0.000000e+00
 54, 1.800000e-02, 6.666667e-03, 0.000000e+00
 55, 1.950000e-02, 6.666667e-03, 0.000000e+00
 56, 2.100000e-02, 6.666667e-03, 0.000000e+00
 57, 2.250000e-02, 6.666667e-03, 0.000000e+00
 58, 2.400000e-02, 6.666667e-03, 0.000000e+00
 59, 2.550000e-02, 6.666667e-03, 0.000000e+00
 60, 2.700000e-02, 6.666667e-03, 0.000000e+00
 61, 2.850000e-02, 6.666667e-03, 0.000000e+00
 62, 3.000000e-02, 6.666667e-03, 0.000000e+00
 63, 3.150000e-02, 6.666667e-03, 0.000000e+00
 64, 3.300000e-02, 6.666667e-03, 0.000000e+00
 65, 3.450000e-02, 6.666667e-03, 0.000000e+00
 66, 3.600000e-02, 6.666667e-03, 0.000000e+00
 67, 3.750000e-02, 6.666667e-03, 0.000000e+00
 68, 3.900000e-02, 6.666667e-03, 0.000000e+00
 69, 4.050000e-02, 6.666667e-03, 0.000000e+00
 70, 4.200000e-02, 6.666667e-03, 0.000000e+00
 71, 4.350000e-02, 6.666667e-03, 0.000000e+00
 72, 4.500000e-02, 6.666667e-03, 0.000000e+00
 73, 4.650000e-02, 6.666667e-03, 0.000000e+00
 74, 4.800000e-02, 6.666667e-03, 0.000000e+00
 75, 4.950000e-02, 6.666667e-03, 0.000000e+00
 76, 5.100000e-02, 6.666667e-03, 0.000000e+00
 77, 5.250000e-02, 6.666667e-03, 0.000000e+00
 78, 5.400000e-02, 6.666667e-03, 0.000000e+00
 79, 5.550000e-02, 6.666667e-03, 0.000000e+00
 80, 5.700000e-02, 6.666667e-03, 0.000000e+00
 81, 5.850000e-02, 6.666667e-03, 0.000000e+00
 82, 6.000000e-02, 6.666667e-03, 0.000000e+00
 83, 0.000000e+00, 1.333333e-02, 0.000000e+00
 84, 1.500000e-03, 1.333333e-02, 0.000000e+00
 85, 3.000000e-03, 1.333333e-02, 0.000000e+00
 86, 4.500000e-03, 1.333333e-02, 0.000000e+00
 87, 6.000000e-03, 1.333333e-02, 0.000000e+00
 88, 7.500000e-03, 1.333333e-02, 0.000000e+00
 89, 9.000000e-03, 1.333333e-02, 0.000000e+00
 90, 1.050000e-02, 1.333333e-02, 0.000000e+00
 91, 1.200000e-02, 1.333333e-02, 0.000000e+00
 92, 1.350000e-02, 1.333333e-02, 0.000000e+00
 93, 1.500000e-02, 1.333333e-02, 0.000000e+00
 94, 1.650000e-02, 1.333333e-02, 0.000000e+00
 95, 1.800000e-02, 1.333333e-02, 0.000000e+00
 96, 1.950000e-02, 1.333333e-02, 0.000000e+00
 97, 2.100000e-02, 1.333333e-02, 0.000000e+00
 98, 2.250000e-02, 1.333333e-02, 0.000000e+00
 99, 2.400000e-02, 1.333333e-02, 0.000000e+00
 100, 2.550000e-02, 1.333333e-02, 0.000000e+00
 101, 2.700000e-02, 1.333333e-02, 0.000000e+00
 102, 2.850000e-02, 1.333333e-02, 0.000000e+00
 103, 3.000000e-02, 1.333333e-02, 0.000000e+00
 104, 3.150000e-02, 1.333333e-02, 0.000000e+00
 105, 3.300000e-02, 1.333333e-02, 0.000000e+00
 106, 3.450000e-02, 1.333333e-02, 0.000000e+00
 107, 3.600000e-02, 1.333333e-02, 0.000000e+00
 108, 3.750000e-02, 1.333333e-02, 0.000000e+00
 109, 3.900000e-02, 1.333333e-02, 0.000000e+00
 110, 4.050000e-02, 1.333333e-02, 0.000000e+00
 111, 4.200000e-02, 1.333333e-02, 0.000000e+00
 112, 4.350000e-02, 1.333333e-02, 0.000000e+00
 113, 4.500000e-02, 1.333333e-02, 0.000000e+00
 114, 4.650000e-02, 1.333333e-02, 0.000000e+00
 115, 4.800000e-02, 1.333333e-02, 0.000000e+00
 116, 4.950000e-02, 1.333333e-02, 0.000000e+00
 117, 5.100000e-02, 1.333333e-02, 0.000000e+00
 118, 5.250000e-02, 1.333333e-02, 0.000000e+00
 119, 5.400000e-02, 1.333333e-02, 0.000000e+00
 120, 5.550000e-02, 1.333333e-02, 0.000000e+00
 121, 5.700000e-02, 1.333333e-02, 0.000000e+00
 122, 5.850000e-02, 1.333333e-02, 0.000000e+00
 123, 6.000000e-02, 1.333333e-02, 0.000000e+00
 124, 0.000000e+00, 2.000000e-02, 0.000000e+00
 125, 1.500000e-03, 2.000000e-02, 0.000000e+00
 126, 3.000000e-03, 2.000000e-02, 0.000000e+00
 127, 4.500000e-03, 2.000000e-02, 0.000000e+00
 128, 6.000000e-03, 2.000000e-02, 0.000000e+00
 129, 7.500000e-03, 2.000000e-02, 0.000000e+00
 130, 9.000000e-03, 2.000000e-02, 0.000000e+00
 131, 1.050000e-02, 2.000000e-02, 0.000000e+00
 132, 1.200000e-02, 2.000000e-02, 0.000000e+00
 133, 1.350000e-02, 2.000000e-02, 0.000000e+00
 134, 1.500000e-02, 2.000000e-02, 0.000000e+00
 135, 1.650000e-02, 2.000000e-02, 0.000000e+00
 136, 1.800000e-02, 2.000000e-02, 0.000000e+00
 137, 1.950000e-02, 2.000000e-02, 0.000000e+00
 138, 2.100000e-02, 2.000000e-02, 0.000000e+00
 139, 2.250000e-02, 2.000000e-02, 0.000000e+00
 140, 2.400000e-02, 2.000000e-02, 0.000000e+00
 141, 2.550000e-02, 2.000000e-02, 0.000000e+00
 142, 2.700000e-02, 2.000000e-02, 0.000000e+00
 143, 2.850000e-02, 2.000000e-02, 0.000000e+00
 144, 3.000000e-02, 2.000000e-02, 0.000000e+00
 145, 3.150000e-02, 2.000000e-02, 0.000000e+00
 146, 3.300000e-02, 2.000000e-02, 0.000000e+00
 147, 3.450000e-02, 2.000000e-02, 0.000000e+00
 148, 3.600000e-02, 2.000000e-02, 0.000000e+00
 149, 3.750000e-02, 2.000000e-02, 0.000000e+00
 150, 3.900000e-02, 2.000000e-02, 0.000000e+00
 151, 4.050000e-02, 2.000000e-02, 0.000000e+00
 152, 4.200000e-02, 2.000000e-02, 0.000000e+00
 153, 4.350000e-02, 2.000000e-02, 0.000000e+00
 154, 4.500000e-02, 2.000000e-02, 0.000000e+00
 155, 4.650000e-02, 2.000000e-02, 0.000000e+00
 156, 4.800000e-02, 2.000000e-02, 0.000000e+00
 157, 4.950000e-02, 2.000000e-02, 0.000000e+00
 158, 5.100000e-02, 2.000000e-02, 0.000000e+00
 159, 5.250000e-02, 2.000000e-02, 0.000000e+00
 160, 5.400000e-02, 2.000000e-02, 0.000000e+00
 161, 5.550000e-02, 2.000000e-02, 0.000000e+00
 162, 5.700000e-02, 2.000000e-02, 0.000000e+00
 163, 5.850000e-02, 2.000000e-02, 0.000000e+00
 164, 6.000000e-02, 2.000000e-02, 0.000000e+00
 165, 0.000000e+00, 0.000000e+00, 6.000000e-04
 166, 1.500000e-03, 0.000000e+00, 6.000000e-04
 167, 3.000000e-03, 0.000000e+00, 6.000000e-04
 168, 4.500000e-03, 0.000000e+00, 6.000000e-04
 169, 6.000000e-03, 0.000000e+00, 6.000000e-04
 170, 7.500000e-03, 0.000000e+00, 6.000000e-04
 171, 9.000000e-03, 0.000000e+00, 6.000000e-04
 172, 1.050000e-02, 0.000000e+00, 6.000000e-04
 173, 1.200000e-02, 0.000000e+00, 6.000000e-04
 174, 1.350000e-02, 0.000000e+00, 6.000000e-04
 175, 1.500000e-02, 0.000000e+00, 6.000000e-04
 176, 1.650000e-02, 0.000000e+00, 6.000000e-04
 177, 1.800000e-02, 0.000000e+00, 6.000000e-04
 178, 1.950000e-02, 0.000000e+00, 6.000000e-04
 179, 2.100000e-02, 0.000000e+00, 6.000000e-04
 180, 2.250000e-02, 0.000000e+00, 6.000000e-04
 181, 2.400000e-02, 0.000000e+00, 6.000000e-04
 182, 2.550000e-02, 0.000000e+00, 6.000000e-04
 183, 2.700000e-02, 0.000000e+00, 6.000000e-04
 184, 2.850000e-02, 0.000000e+00, 6.000000e-04
 185, 3.000000e-02, 0.000000e+00, 6.000000e-04
 186, 3.150000e-02, 0.000000e+00, 6.000000e-04
 187, 3.300000e-02, 0.000000e+00, 6.000000e-04
 188, 3.450000e-02, 0.000000e+00, 6.000000e-04
 189, 3.600000e-02, 0.000000e+00, 6.000000e-04
 190, 3.750000e-02, 0.000000e+00, 6.000000e-04
 191, 3.900000e-02, 0.000000e+00, 6.000000e-04
 192, 4.050000e-02, 0.000000e+00, 6.000000e-04
 193, 4.200000e-02, 0.000000e+00, 6.000000e-04
 194, 4.350000e-02, 0.000000e+00, 6.000000e-04
 195, 4.500000e-02, 0.000000e+00, 6.000000e-04
 196, 4.650000e-02, 0.000000e+00, 6.000000e-04
 197, 4.800000e-02, 0.000000e+00, 6.000000e-04
 198, 4.950000e-02, 0.000000e+00, 6.000000e-04
 199, 5.100000e-02, 0.000000e+00, 6.000000e-04
 200, 5.250000e-02, 0.000000e+00, 6.000000e-04
 201, 5.400000e-02, 0.000000e+00, 6.000000e-04
 202, 5.550000e-02, 0.000000e+00, 6.000000e-04
 203, 5.700000e-02, 0.000000e+00, 6.000000e-04
 204, 5.850000e-02, 0.000000e+00, 6.000000e-04
 205, 6.000000e-02, 0.000000e+00, 6.000000e-04
 206, 0.000000e+00, 6.666667e-03, 6.000000e-04
 207, 1.500000e-03, 6.666667e-03, 6.000000e-04
 208, 3.000000e-03, 6.666667e-03, 6.000000e-04
 209, 4.500000e-03, 6.666667e-03, 6.000000e-04
 210, 6.000000e-03, 6.666667e-03, 6.000000e-04
 211, 7.500000e-03, 6.666667e-03, 6.000000e-04
 212, 9.000000e-03, 6.666667e-03, 6.000000e-04
 213, 1.050000e-02, 6.666667e-03, 6.000000e-04
 214, 1.200000e-02, 6.666667e-03, 6.000000e-04
 215, 1.350000e-02, 6.666667e-03, 6.000000e-04
 216, 1.500000e-02, 6.666667e-03, 6.000000e-04
 217, 1.650000e-02, 6.666667e-03, 6.000000e-04
 218, 1.800000e-02, 6.666667e-03, 6.000000e-04
 219, 1.950000e-02, 6.666667e-03, 6.000000e-04
 220, 2.100000e-02, 6.666667e-03, 6.000000e-04
 221, 2.250000e-02, 6.666667e-03, 6.000000e-04
 222, 2.400000e-02, 6.666667e-03, 6.000000e-04
 223, 2.550000e-02, 6.666667e-03, 6.000000e-04
 224, 2.700000e-02, 6.666667e-03, 6.000000e-04
 225, 2.850000e-02, 6.666667e-03, 6.000000e-04
 226, 3.000000e-02, 6.666667e-03, 6.000000e-04
 227, 3.150000e-02, 6.666667e-03, 6.000000e-04
 228, 3.300000e-02, 6.666667e-03, 6.000000e-04
 229, 3.450000e-02, 6.666667e-03, 6.000000e-04
 230, 3.600000e-02, 6.666667e-03, 6.000000e-04
 231, 3.750000e-02, 6.666667e-03, 6.000000e-04
 232, 3.900000e-02, 6.666667e-03, 6.000000e-04
 233, 4.050000e-02, 6.666667e-03, 6.000000e-04
 234, 4.200000e-02, 6.666667e-03, 6.000000e-04
 235, 4.350000e-02, 6.666667e-03, 6.000000e-04
 236, 4.500000e-02, 6.666667e-03, 6.000000e-04
 237, 4.650000e-02, 6.666667e-03, 6.000000e-04
 238, 4.800000e-02, 6.666667e-03, 6.000000e-04
 239, 4.950000e-02, 6.666667e-03, 6.000000e-04
 240, 5.100000e-02, 6.666667e-03, 6.000000e-04
 241, 5.250000e-02, 6.666667e-03, 6.000000e-04
 242, 5.400000e-02, 6.666667e-03, 6.000000e-04
 243, 5.550000e-02, 6.666667e-03, 6.000000e-04
 244, 5.700000e-02, 6.666667e-03, 6.000000e-04
 245, 5.850000e-02, 6.666667e-03, 6.000000e-04
 246, 6.000000e-02, 6.666667e-03, 6.000000e-04
 247, 0.000000e+00, 1.333333e-02, 6.000000e-04
 248, 1.500000e-03, 1.333333e-02, 6.000000e-04
 249, 3.000000e-03, 1.333333e-02, 6.000000e-04
 250, 4.500000e-03, 1.333333e-02, 6.000000e-04
 251, 6.000000e-03, 1.333333e-02, 6.000000e-04
 252, 7.500000e-03, 1.333333e-02, 6.000000e-04
 253, 9.000000e-03, 1.333333e-02, 6.000000e-04
 254, 1.050000e-02, 1.333333e-02, 6.000000e-04
 255, 1.200000e-02, 1.333333e-02, 6.000000e-04
 256, 1.350000e-02, 1.333333e-02, 6.000000e-04
 257, 1.500000e-02, 1.333333e-02, 6.000000e-04
 258, 1.650000e-02, 1.333333e-02, 6.000000e-04
 259, 1.800000e-02, 1.333333e-02, 6.000000e-04
 260, 1.950000e-02, 1.333333e-02, 6.000000e-04
 261, 2.100000e-02, 1.333333e-02, 6.000000e-04
 262, 2.250000e-02, 1.333333e-02, 6.000000e-04
 263, 2.400000e-02, 1.333333e-02, 6.000000e-04
 264, 2.550000e-02, 1.333333e-02, 6.000000e-04
 265, 2.700000e-02, 1.333333e-02, 6.000000e-04
 266, 2.850000e-02, 1.333333e-02, 6.000000e-04
 267, 3.000000e-02, 1.333333e-02, 6.000000e-04
 268, 3.150000e-02, 1.333333e-02, 6.000000e-04
 269, 3.300000e-02, 1.333333e-02, 6.000000e-04
 270, 3.450000e-02, 1.333333e-02, 6.000000e-04
 271, 3.600000e-02, 1.333333e-02, 6.000000e-04
 272, 3.750000e-02, 1.333333e-02, 6.000000e-04
 273, 3.900000e-02, 1.333333e-02, 6.000000e-04
 274, 4.050000e-02, 1.333333e-02, 6.000000e-04
 275, 4.200000e-02, 1.333333e-02, 6.000000e-04
 276, 4.350000e-02, 1.333333e-02, 6.000000e-04
 277, 4.500000e-02, 1.333333e-02, 6.000000e-04
 278, 4.650000e-02, 1.333333e-02, 6.000000e-04
 279, 4.800000e-02, 1.333333e-02, 6.000000e-04
 280, 4.950000e-02, 1.333333e-02, 6.000000e-04
 281, 5.100000e-02, 1.333333e-02, 6.000000e-04
 282, 5.250000e-02, 1.333333e-02, 6.000000e-04
 283, 5.400000e-02, 1.333333e-02, 6.000000e-04
 284, 5.550000e-02, 1.333333e-02, 6.000000e-04
 285, 5.700000e-02, 1.333333e-02, 6.000000e-04
 286, 5.850000e-02, 1.333333e-02, 6.000000e-04
 287, 6.000000e-02, 1.333333e-02, 6.000000e-04
 288, 0.000000e+00, 2.000000e-02, 6.000000e-04
 289, 1.500000e-03, 2.000000e-02, 6.000000e-04
 290, 3.000000e-03, 2.000000e-02, 6.000000e-04
 291, 4.500000e-03, 2.000000e-02, 6.000000e-04
 292, 6.000000e-03, 2.000000e-02, 6.000000e-04
 293, 7.500000e-03, 2.000000e-02, 6.000000e-04
 294, 9.000000e-03, 2.000000e-02, 6.000000e-04
 295, 1.050000e-02, 2.000000e-02, 6.000000e-04
 296, 1.200000e-02, 2.000000e-02, 6.000000e-04
 297, 1.350000e-02, 2.000000e-02, 6.000000e-04
 298, 1.500000e-02, 2.000000e-02, 6.000000e-04
 299, 1.650000e-02, 2.000000e-02, 6.000000e-04
 300, 1.800000e-02, 2.000000e-02, 6.000000e-04
 301, 1.950000e-02, 2.000000e-02, 6.000000e-04
 302, 2.100000e-02, 2.000000e-02, 6.000000e-04
 303, 2.250000e-02, 2.000000e-02, 6.000000e-04
 304, 2.400000e-02, 2.000000e-02, 6.000000e-04
 305, 2.550000e-02, 2.000000e-02, 6.000000e-04
 306, 2.700000e-02, 2.000000e-02, 6.000000e-04
 307, 2.850000e-02, 2.000000e-02, 6.000000e-04
 308, 3.000000e-02, 2.000000e-02, 6.000000e-04
 309, 3.150000e-02, 2.000000e-02, 6.000000e-04
 310, 3.300000e-02, 2.000000e-02, 6.000000e-04
 311, 3.450000e-02, 2.000000e-02, 6.000000e-04
 312, 3.600000e-02, 2.000000e-02, 6.000000e-04
 313, 3.750000e-02, 2.000000e-02, 6.000000e-04
 314, 3.900000e-02, 2.000000e-02, 6.000000e-04
 315, 4.050000e-02, 2.000000e-02, 6.000000e-04
 316, 4.200000e-02, 2.000000e-02, 6.000000e-04
 317, 4.350000e-02, 2.000000e-02, 6.000000e-04
 318, 4.500000e-02, 2.000000e-02, 6.000000e-04
 319, 4.650000e-02, 2.000000e-02, 6.000000e-04
 320, 4.800000e-02, 2.000000e-02, 6.000000e-04
 321, 4.950000e-02, 2.000000e-02, 6.000000e-04
 322, 5.100000e-02, 2.000000e-02, 6.000000e-04
 323, 5.250000e-02, 2.000000e-02, 6.000000e-04
 324, 5.400000e-02, 2.000000e-02, 6.000000e-04
 325, 5.550000e-02, 2.000000e-02, 6.000000e-04
 326, 5.700000e-02, 2.000000e-02, 6.000000e-04
 327, 5.850000e-02, 2.000000e-02, 6.000000e-04
 328, 6.000000e-02, 2.000000e-02, 6.000000e-04
 329, 0.000000e+00, 0.000000e+00, 6.000000e-04
 330, 1.500000e-03, 0.000000e+00, 6.000000e-04
 331, 3.000000e-03, 0.000000e+00, 6.000000e-04
 332, 4.500000e-03, 0.000000e+00, 6.000000e-04
 333, 6.000000e-03, 0.000000e+00, 6.000000e-04
 334, 7.500000e-03, 0.000000e+00, 6.000000e-04
 335, 9.000000e-03, 0.000000e+00, 6.000000e-04
 336, 1.050000e-02, 0.000000e+00, 6.000000e-04
 337, 1.200000e-02, 0.000000e+00, 6.000000e-04
 338, 1.350000e-02, 0.000000e+00, 6.000000e-04
 339, 1.500000e-02, 0.000000e+00, 6.000000e-04
 340, 1.650000e-02, 0.000000e+00, 6.000000e-04
 341, 1.800000e-02, 0.000000e+00, 6.000000e-04
 342, 1.950000e-02, 0.000000e+00, 6.000000e-04
 343, 2.100000e-02, 0.000000e+00, 6.000000e-04
 344, 2.250000e-02, 0.000000e+00, 6.000000e-04
 345, 2.400000e-02, 0.000000e+00, 6.000000e-04
 346, 2.550000e-02, 0.000000e+00, 6.000000e-04
 347, 2.700000e-02, 0.000000e+00, 6.000000e-04
 348, 2.850000e-02, 0.000000e+00, 6.000000e-04
 349, 3.000000e-02, 0.000000e+00, 6.000000e-04
 350, 3.150000e-02, 0.000000e+00, 6.000000e-04
 351, 3.300000e-02, 0.000000e+00, 6.000000e-04
 352, 3.450000e-02, 0.000000e+00, 6.000000e-04
 353, 3.600000e-02, 0.000000e+00, 6.000000e-04
 354, 3.750000e-02, 0.000000e+00, 6.000000e-04
 355, 3.900000e-02, 0.000000e+00, 6.000000e-04
 356, 4.050000e-02, 0.000000e+00, 6.000000e-04
 357, 4.200000e-02, 0.000000e+00, 6.000000e-04
 358, 4.350000e-02, 0.000000e+00, 6.000000e-04
 359, 4.500000e-02, 0.000000e+00, 6.000000e-04
 360, 4.650000e-02, 0.000000e+00, 6.000000e-04
 361, 4.800000e-02, 0.000000e+00, 6.000000e-04
 362, 4.950000e-02, 0.000000e+00, 6.000000e-04
 363, 5.100000e-02, 0.000000e+00, 6.000000e-04
 364, 5.250000e-02, 0.000000e+00, 6.000000e-04
 365, 5.400000e-02, 0.000000e+00, 6.000000e-04
 366, 5.550000e-02, 0.000000e+00, 6.000000e-04
 367, 5.700000e-02, 0.000000e+00, 6.000000e-04
 368, 5.850000e-02, 0.000000e+00, 6.000000e-04
 369, 6.000000e-02, 0.000000e+00, 6.000000e-04
 370, 0.000000e+00, 6.666667e-03, 6.000000e-04
 371, 1.500000e-03, 6.666667e-03, 6.000000e-04
 372, 3.000000e-03, 6.666667e-03, 6.000000e-04
 373, 4.500000e-03, 6.666667e-03, 6.000000e-04
 374, 6.000000e-03, 6.666667e-03, 6.000000e-04
 375, 7.500000e-03, 6.666667e-03, 6.000000e-04
 376, 9.000000e-03, 6.666667e-03, 6.000000e-04
 377, 1.050000e-02, 6.666667e-03, 6.000000e-04
 378, 1.200000e-02, 6.666667e-03, 6.000000e-04
 379, 1.350000e-02, 6.666667e-03, 6.000000e-04
 380, 1.500000e-02, 6.666667e-03, 6.000000e-04
 381, 1.650000e-02, 6.666667e-03, 6.000000e-04
 382, 1.800000e-02, 6.666667e-03, 6.000000e-04
 383, 1.950000e-02, 6.666667e-03, 6.000000e-04
 384, 2.100000e-02, 6.666667e-03, 6.000000e-04
 385, 2.250000e-02, 6.666667e-03, 6.000000e-04
 386, 2.400000e-02, 6.666667e-03, 6.000000e-04
 387, 2.550000e-02, 6.666667e-03, 6.000000e-04
 388, 2.700000e-02, 6.666667e-03, 6.000000e-04
 389, 2.850000e-02, 6.666667e-03, 6.000000e-04
 390, 3.000000e-02, 6.666667e-03, 6.000000e-04
 391, 3.150000e-02, 6.666667e-03, 6.000000e-04
 392, 3.300000e-02, 6.666667e-03, 6.000000e-04
 393, 3.450000e-02, 6.666667e-03, 6.000000e-04
 394, 3.600000e-02, 6.666667e-03, 6.000000e-04
 395, 3.750000e-02, 6.666667e-03, 6.000000e-04
 396, 3.900000e-02, 6.666667e-03, 6.000000e-04
 397, 4.050000e-02, 6.666667e-03, 6.000000e-04
 398, 4.200000e-02, 6.666667e-03, 6.000000e-04
 399, 4.350000e-02, 6.666667e-03, 6.000000e-04
 400, 4.500000e-02, 6.666667e-03, 6.000000e-04
 401, 4.650000e-02, 6.666667e-03, 6.000000e-04
 402, 4.800000e-02, 6.666667e-03, 6.000000e-04
 403, 4.950000e-02, 6.666667e-03, 6.000000e-04
 404, 5.100000e-02, 6.666667e-03, 6.000000e-04
 405, 5.250000e-02, 6.666667e-03, 6.000000e-04
 406, 5.400000e-02, 6.666667e-03, 6.000000e-04
 407, 5.550000e-02, 6.666667e-03, 6.000000e-04
 408, 5.700000e-02, 6.666667e-03, 6.000000e-04
 409, 5.850000e-02, 6.666667e-03, 6.000000e-04
 410, 6.000000e-02, 6.666667e-03, 6.000000e-04
 411, 0.000000e+00, 1.333333e-02, 6.000000e-04
 412, 1.500000e-03, 1.333333e-02, 6.000000e-04
 413, 3.000000e-03, 1.333333e-02, 6.000000e-04
 414, 4.500000e-03, 1.333333e-02, 6.000000e-04
 415, 6.000000e-03, 1.333333e-02, 6.000000e-04
 416, 7.500000e-03, 1.333333e-02, 6.000000e-04
 417, 9.000000e-03, 1.333333e-02, 6.000000e-04
 418, 1.050000e-02, 1.333333e-02, 6.000000e-04
 419, 1.200000e-02, 1.333333e-02, 6.000000e-04
 420, 1.350000e-02, 1.333333e-02, 6.000000e-04
 421, 1.500000e-02, 1.333333e-02, 6.000000e-04
 422, 1.650000e-02, 1.333333e-02, 6.000000e-04
 423, 1.800000e-02, 1.333333e-02, 6.000000e-04
 424, 1.950000e-02, 1.333333e-02, 6.000000e-04
 425, 2.100000e-02, 1.333333e-02, 6.000000e-04
 426, 2.250000e-02, 1.333333e-02, 6.000000e-04
 427, 2.400000e-02, 1.333333e-02, 6.000000e-04
 428, 2.550000e-02, 1.333333e-02, 6.000000e-04
 429, 2.700000e-02, 1.333333e-02, 6.000000e-04
 430, 2.850000e-02, 1.333333e-02, 6.000000e-04
 431, 3.000000e-02, 1.333333e-02, 6.000000e-04
 432, 3.150000e-02, 1.333333e-02, 6.000000e-04
 433, 3.300000e-02, 1.333333e-02, 6.000000e-04
 434, 3.450000e-02, 1.333333e-02, 6.000000e-04
 435, 3.600000e-02, 1.333333e-02, 6.000000e-04
 436, 3.750000e-02, 1.333333e-02, 6.000000e-04
 437, 3.900000e-02, 1.333333e-02, 6.000000e-04
 438, 4.050000e-02, 1.333333e-02, 6.000000e-04
 439, 4.200000e-02, 1.333333e-02, 6.000000e-04
 440, 4.350000e-02, 1.333333e-02, 6.000000e-04
 441, 4.500000e-02, 1.333333e-02, 6.000000e-04
 442, 4.650000e-02, 1.333333e-02, 6.000000e-04
 443, 4.800000e-02, 1.333333e-02, 6.000000e-04
 444, 4.950000e-02, 1.333333e-02, 6.000000e-04
 445, 5.100000e-02, 1.333333e-02, 6.000000e-04
 446, 5.250000e-02, 1.333333e-02, 6.000000e-04
 447, 5.400000e-02, 1.333333e-02, 6.000000e-04
 448, 5.550000e-02, 1.333333e-02, 6.000000e-04
 449, 5.700000e-02, 1.333333e-02, 6.000000e-04
 450, 5.850000e-02, 1.333333e-02, 6.000000e-04
 451, 6.000000e-02, 1.333333e-02, 6.000000e-04
 452, 0.000000e+00, 2.000000e-02, 6.000000e-04
 453, 1.500000e-03, 2.000000e-02, 6.000000e-04
 454, 3.000000e-03, 2.000000e-02, 6.000000e-04
 455, 4.500000e-03, 2.000000e-02, 6.000000e-04
 456, 6.000000e-03, 2.000000e-02, 6.000000e-04
 457, 7.500000e-03, 2.000000e-02, 6.000000e-04
 458, 9.000000e-03, 2.000000e-02, 6.000000e-04
 459, 1.050000e-02, 2.000000e-02, 6.000000e-04
 460, 1.200000e-02, 2.000000e-02, 6.000000e-04
 461, 1.350000e-02, 2.000000e-02, 6.000000e-04
 462, 1.500000e-02, 2.000000e-02, 6.000000e-04
 463, 1.650000e-02, 2.000000e-02, 6.000000e-04
 464, 1.800000e-02, 2.000000e-02, 6.000000e-04
 465, 1.950000e-02, 2.000000e-02, 6.000000e-04
 466, 2.100000e-02, 2.000000e-02, 6.000000e-04
 467, 2.250000e-02, 2.000000e-02, 6.000000e-04
 468, 2.400000e-02, 2.000000e-02, 6.000000e-04
 469, 2.550000e-02, 2.000000e-02, 6.000000e-04
 470, 2.700000e-02, 2.000000e-02, 6.000000e-04
 471, 2.850000e-02, 2.000000e-02, 6.000000e-04
 472, 3.000000e-02, 2.000000e-02, 6.000000e-04
 473, 3.150000e-02, 2.000000e-02, 6.000000e-04
 474, 3.300000e-02, 2.000000e-02, 6.000000e-04
 475, 3.450000e-02, 2.000000e-02, 6.000000e-04
 476, 3.600000e-02, 2.000000e-02, 6.000000e-04
 477, 3.750000e-02, 2.000000e-02, 6.000000e-04
 478, 3.900000e-02, 2.000000e-02, 6.000000e-04
 479, 4.050000e-02, 2.000000e-02, 6.000000e-04
 480, 4.200000e-02, 2.000000e-02, 6.000000e-04
 481, 4.350000e-02, 2.000000e-02, 6.000000e-04
 482, 4.500000e-02, 2.000000e-02, 6.000000e-04
 483, 4.650000e-02, 2.000000e-02, 6.000000e-04
 484, 4.800000e-02, 2.000000e-02, 6.000000e-04
 485, 4.950000e-02, 2.000000e-02, 6.000000e-04
 486, 5.100000e-02, 2.000000e-02, 6.000000e-04
 487, 5.250000e-02, 2.000000e-02, 6.000000e-04
 488, 5.400000e-02, 2.000000e-02, 6.000000e-04
 489, 5.550000e-02, 2.000000e-02, 6.000000e-04
 490, 5.700000e-02, 2.000000e-02, 6.000000e-04
 491, 5.850000e-02, 2.000000e-02, 6.000000e-04
 492, 6.000000e-02, 2.000000e-02, 6.000000e-04
 493, 0.000000e+00, 0.000000e+00, 1.200000e-03
 494, 1.500000e-03, 0.000000e+00, 1.200000e-03
 495, 3.000000e-03, 0.000000e+00, 1.200000e-03
 496, 4.500000e-03, 0.000000e+00, 1.200000e-03
 497, 6.000000e-03, 0.000000e+00, 1.200000e-03
 498, 7.500000e-03, 0.000000e+00, 1.200000e-03
 499, 9.000000e-03, 0.000000e+00, 1.200000e-03
 500, 1.050000e-02, 0.000000e+00, 1.200000e-03
 501, 1.200000e-02, 0.000000e+00, 1.200000e-03
 502, 1.350000e-02, 0.000000e+00, 1.200000e-03
 503, 1.500000e-02, 0.000000e+00, 1.200000e-03
 504, 1.650000e-02, 0.000000e+00, 1.200000e-03
 505, 1.800000e-02, 0.000000e+00, 1.200000e-03
 506, 1.950000e-02, 0.000000e+00, 1.200000e-03
 507, 2.100000e-02, 0.000000e+00, 1.200000e-03
 508, 2.250000e-02, 0.000000e+00, 1.200000e-03
 509, 2.400000e-02, 0.000000e+00, 1.200000e-03
 510, 2.550000e-02, 0.000000e+00, 1.200000e-03
 511, 2.700000e-02, 0.000000e+00, 1.200000e-03
 512, 2.850000e-02, 0.000000e+00, 1.200000e-03
 513, 3.000000e-02, 0.000000e+00, 1.200000e-03
 514, 3.150000e-02, 0.000000e+00, 1.200000e-03
 515, 3.300000e-02, 0.000000e+00, 1.200000e-03
 516, 3.450000e-02, 0.000000e+00, 1.200000e-03
 517, 3.600000e-02, 0.000000e+00, 1.200000e-03
 518, 3.750000e-02, 0.000000e+00, 1.200000e-03
 519, 3.900000e-02, 0.000000e+00, 1.200000e-03
 520, 4.050000e-02, 0.000000e+00, 1.200000e-03
 521, 4.200000e-02, 0.000000e+00, 1.200000e-03
 522, 4.350000e-02, 0.000000e+00, 1.200000e-03
 523, 4.500000e-02, 0.000000e+00, 1.200000e-03
 524, 4.650000e-02, 0.000000e+00, 1.200000e-03
 525, 4.800000e-02, 0.000000e+00, 1.200000e-03
 526, 4.950000e-02, 0.000000e+00, 1.200000e-03
 527, 5.100000e-02, 0.000000e+00, 1.200000e-03
 528, 5.250000e-02, 0.000000e+00, 1.200000e-03
 529, 5.400000e-02, 0.000000e+00, 1.200000e-03
 530, 5.550000e-02, 0.000000e+00, 1.200000e-03
 531, 5.700000e-02, 0.000000e+00, 1.200000e-03
 532, 5.850000e-02, 0.000000e+00, 1.200000e-03
 533, 6.000000e-02, 0.000000e+00, 1.200000e-03
 534, 0.000000e+00, 6.666667e-03, 1.200000e-03
 535, 1.500000e-03, 6.666667e-03, 1.200000e-03
 536, 3.000000e-03, 6.666667e-03, 1.200000e-03
 537, 4.500000e-03, 6.666667e-03, 1.200000e-03
 538, 6.000000e-03, 6.666667e-03, 1.200000e-03
 539, 7.500000e-03, 6.666667e-03, 1.200000e-03
 540, 9.000000e-03, 6.666667e-03, 1.200000e-03
 541, 1.050000e-02, 6.666667e-03, 1.200000e-03
 542, 1.200000e-02, 6.666667e-03, 1.200000e-03
 543, 1.350000e-02, 6.666667e-03, 1.200000e-03
 544, 1.500000e-02, 6.666667e-03, 1.200000e-03
 545, 1.650000e-02, 6.666667e-03, 1.200000e-03
 546, 1.800000e-02, 6.666667e-03, 1.200000e-03
 547, 1.950000e-02, 6.666667e-03, 1.200000e-03
 548, 2.100000e-02, 6.666667e-03, 1.200000e-03
 549, 2.250000e-02, 6.666667e-03, 1.200000e-03
 550, 2.400000e-02, 6.666667e-03, 1.200000e-03
 551, 2.550000e-02, 6.666667e-03, 1.200000e-03
 552, 2.700000e-02, 6.666667e-03, 1.200000e-03
 553, 2.850000e-02, 6.666667e-03, 1.200000e-03
 554, 3.000000e-02, 6.666667e-03, 1.200000e-03
 555, 3.150000e-02, 6.666667e-03, 1.200000e-03
 556, 3.300000e-02, 6.666667e-03, 1.200000e-03
 557, 3.450000e-02, 6.666667e-03, 1.200000e-03
 558, 3.600000e-02, 6.666667e-03, 1.200000e-03
 559, 3.750000e-02, 6.666667e-03, 1.200000e-03
 560, 3.900000e-02, 6.666667e-03, 1.200000e-03
 561, 4.050000e-02, 6.666667e-03, 1.200000e-03
 562, 4.200000e-02, 6.666667e-03, 1.200000e-03
 563, 4.350000e-02, 6.666667e-03, 1.200000e-03
 564, 4.500000e-02, 6.666667e-03, 1.200000e-03
 565, 4.650000e-02, 6.666667e-03, 1.200000e-03
 566, 4.800000e-02, 6.666667e-03, 1.200000e-03
 567, 4.950000e-02, 6.666667e-03, 1.200000e-03
 568, 5.100000e-02, 6.666667e-03, 1.200000e-03
 569, 5.250000e-02, 6.666667e-03, 1.200000e-03
 570, 5.400000e-02, 6.666667e-03, 1.200000e-03
 571, 5.550000e-02, 6.666667e-03, 1.200000e-03
 572, 5.700000e-02, 6.666667e-03, 1.200000e-03
 573, 5.850000e-02, 6.666667e-03, 1.200000e-03
 574, 6.000000e-02, 6.666667e-03, 1.200000e-03
 575, 0.000000e+00, 1.333333e-02, 1.200000e-03
 576, 1.500000e-03, 1.333333e-02, 1.200000e-03
 577, 3.000000e-03, 1.333333e-02, 1.200000e-03
 578, 4.500000e-03, 1.333333e-02, 1.200000e-03
 579, 6.000000e-03, 1.333333e-02, 1.200000e-03
 580, 7.500000e-03, 1.333333e-02, 1.200000e-03
 581, 9.000000e-03, 1.333333e-02, 1.200000e-03
 582, 1.050000e-02, 1.333333e-02, 1.200000e-03
 583, 1.200000e-02, 1.333333e-02, 1.200000e-03
 584, 1.350000e-02, 1.333333e-02, 1.200000e-03
 585, 1.500000e-02, 1.333333e-02, 1.200000e-03
 586, 1.650000e-02, 1.333333e-02, 1.200000e-03
 587, 1.800000e-02, 1.333333e-02, 1.200000e-03
 588, 1.950000e-02, 1.333333e-02, 1.200000e-03
 589, 2.100000e-02, 1.333333e-02, 1.200000e-03
 590, 2.250000e-02, 1.333333e-02, 1.200000e-03
 591, 2.400000e-02, 1.333333e-02, 1.200000e-03
 592, 2.550000e-02, 1.333333e-02, 1.200000e-03
 593, 2.700000e-02, 1.333333e-02, 1.200000e-03
 594, 2.850000e-02, 1.333333e-02, 1.200000e-03
 595, 3.000000e-02, 1.333333e-02, 1.200000e-03
 596, 3.150000e-02, 1.333333e-02, 1.200000e-03
 597, 3.300000e-02, 1.333333e-02, 1.200000e-03
 598, 3.450000e-02, 1.333333e-02, 1.200000e-03
 599, 3.600000e-02, 1.333333e-02, 1.200000e-03
 600, 3.750000e-02, 1.333333e-02, 1.200000e-03
 601, 3.900000e-02, 1.333333e-02, 1.200000e-03
 602, 4.050000e-02, 1.333333e-02, 1.200000e-03
 603, 4.200000e-02, 1.333333e-02, 1.200000e-03
 604, 4.350000e-02, 1.333333e-02, 1.200000e-03
 605, 4.500000e-02, 1.333333e-02, 1.200000e-03
 606, 4.650000e-02, 1.333333e-02, 1.200000e-03
 607, 4.800000e-02, 1.333333e-02, 1.200000e-03
 608, 4.950000e-02, 1.333333e-02, 1.200000e-03
 609, 5.100000e-02, 1.333333e-02, 1.200000e-03
 610, 5.250000e-02, 1.333333e-02, 1.200000e-03
 611, 5.400000e-02, 1.333333e-02, 1.200000e-03
 612, 5.550000e-02, 1.333333e-02, 1.200000e-03
 613, 5.700000e-02, 1.333333e-02, 1.200000e-03
 614, 5.850000e-02, 1.333333e-02, 1.200000e-03
 615, 6.000000e-02, 1.333333e-02, 1.200000e-03
 616, 0.000000e+00, 2.000000e-02, 1.200000e-03
 617, 1.500000e-03, 2.000000e-02, 1.200000e-03
 618, 3.000000e-03, 2.000000e-02, 1.200000e-03
 619, 4.500000e-03, 2.000000e-02, 1.200000e-03
 620, 6.000000e-03, 2.000000e-02, 1.200000e-03
 621, 7.500000e-03, 2.000000e-02, 1.200000e-03
 622, 9.000000e-03, 2.000000e-02, 1.200000e-03
 623, 1.050000e-02, 2.000000e-02, 1.200000e-03
 624, 1.200000e-02, 2.000000e-02, 1.200000e-03
 625, 1.350000e-02, 2.000000e-02, 1.200000e-03
 626, 1.500000e-02, 2.000000e-02, 1.200000e-03
 627, 1.650000e-02, 2.000000e-02, 1.200000e-03
 628, 1.800000e-02, 2.000000e-02, 1.200000e-03
 629, 1.950000e-02, 2.000000e-02, 1.200000e-03
 630, 2.100000e-02, 2.000000e-02, 1.200000e-03
 631, 2.250000e-02, 2.000000e-02, 1.200000e-03
 632, 2.400000e-02, 2.000000e-02, 1.200000e-03
 633, 2.550000e-02, 2.000000e-02, 1.200000e-03
 634, 2.700000e-02, 2.000000e-02, 1.200000e-03
 635, 2.850000e-02, 2.000000e-02, 1.200000e-03
 636, 3.000000e-02, 2.000000e-02, 1.200000e-03
 637, 3.150000e-02, 2.000000e-02, 1.200000e-03
 638, 3.300000e-02, 2.000000e-02, 1.200000e-03
 639, 3.450000e-02, 2.000000e-02, 1.200000e-03
 640, 3.600000e-02, 2.000000e-02, 1.200000e-03
 641, 3.750000e-02, 2.000000e-02, 1.200000e-03
 642, 3.900000e-02, 2.000000e-02, 1.200000e-03
 643, 4.050000e-02, 2.000000e-02, 1.200000e-03
 644, 4.200000e-02, 2.000000e-02, 1.200000e-03
 645, 4.350000e-02, 2.000000e-02, 1.200000e-03
 646, 4.500000e-02, 2.000000e-02, 1.200000e-03
 647, 4.650000e-02, 2.000000e-02, 1.200000e-03
 648, 4.800000e-02, 2.000000e-02, 1.200000e-03
 649, 4.950000e-02, 2.000000e-02, 1.200000e-03
 650, 5.100000e-02, 2.000000e-02, 1.200000e-03
 651, 5.250000e-02, 2.000000e-02, 1.200000e-03
 652, 5.400000e-02, 2.000000e-02, 1.200000e-03
 653, 5.550000e-02, 2.000000e-02, 1.200000e-03
 654, 5.700000e-02, 2.000000e-02, 1.200000e-03
 655, 5.850000e-02, 2.000000e-02, 1.200000e-03
 656, 6.000000e-02, 2.000000e-02, 1.200000e-03
*ELEMENT, TYPE=C3D8, ELSET=BOT
 1, 1, 2, 43, 42, 165, 166, 207, 206
 2, 2, 3, 44, 43, 166, 167, 208, 207
 3, 3, 4, 45, 44, 167, 168, 209, 208
 4, 4, 5, 46, 45, 168, 169, 210, 209
 5, 5, 6, 47, 46, 169, 170, 211, 210
 6, 6, 7, 48, 47, 170, 171, 212, 211
 7, 7, 8, 49, 48, 171, 172, 213, 212
 8, 8, 9, 50, 49, 172, 173, 214, 213
 9, 9, 10, 51, 50, 173, 174, 215, 214
 10, 10, 11, 52, 51, 174, 175, 216, 215
 11, 11, 12, 53, 52, 175, 176, 217, 216
 12, 12, 13, 54, 53, 176, 177, 218, 217
 13, 13, 14, 55, 54, 177, 178, 219, 218
 14, 14, 15, 56, 55, 178, 179, 220, 219
 15, 15, 16, 57, 56, 179, 180, 221, 220
 16, 16, 17, 58, 57, 180, 181, 222, 221
 17, 17, 18, 59, 58, 181, 182, 223, 222
 18, 18, 19, 60, 59, 182, 183, 224, 223
 19, 19, 20, 61, 60, 183, 184, 225, 224
 20, 20, 21, 62, 61, 184, 185, 226, 225
 21, 21, 22, 63, 62, 185, 186, 227, 226
 22, 22, 23, 64, 63, 186, 187, 228, 227
 23, 23, 24, 65, 64, 187, 188, 229, 228
 24, 24, 25, 66, 65, 188, 189, 230, 229
 25, 25, 26, 67, 66, 189, 190, 231, 230
 26, 26, 27, 68, 67, 190, 191, 232, 231
 27, 27, 28, 69, 68, 191, 192, 233, 232
 28, 28, 29, 70, 69, 192, 193, 234, 233
 29, 29, 30, 71, 70, 193, 194, 235, 234
 30, 30, 31, 72, 71, 194, 195, 236, 235
 31, 31, 32, 73, 72, 195, 196, 237, 236
 32, 32, 33, 74, 73, 196, 197, 238, 237
 33, 33, 34, 75, 74, 197, 198, 239, 238
 34, 34, 35, 76, 75, 198, 199, 240, 239
 35, 35, 36, 77, 76, 199, 200, 241, 240
 36, 36, 37, 78, 77, 200, 201, 242, 241
 37, 37, 38, 79, 78, 201, 202, 243, 242
 38, 38, 39, 80, 79, 202, 203, 244, 243
 39, 39, 40, 81, 80, 203, 204, 245, 244
 40, 40, 41, 82, 81, 204, 205, 246, 245
 41, 42, 43, 84, 83, 206, 207, 248, 247
 42, 43, 44, 85, 84, 207, 208, 249, 248
 43, 44, 45, 86, 85, 208, 209, 250, 249
 44, 45, 46, 87, 86, 209, 210, 251, 250
 45, 46, 47, 88, 87, 210, 211, 252, 251
 46, 47, 48, 89, 88, 211, 212, 253, 252
 47, 48, 49, 90, 89, 212, 213, 254, 253
 48, 49, 50, 91, 90, 213, 214, 255, 254
 49, 50, 51, 92, 91, 214, 215, 256, 255
 50, 51, 52, 93, 92, 215, 216, 257, 256
 51, 52, 53, 94, 93, 216, 217, 258, 257
 52, 53, 54, 95, 94, 217, 218, 259, 258
 53, 54, 55, 96, 95, 218, 219, 260, 259
 54, 55, 56, 97, 96, 219, 220, 261, 260
 55, 56, 57, 98, 97, 220, 221, 262, 261
 56, 57, 58, 99, 98, 221, 222, 263, 262
 57, 58, 59, 100, 99, 222, 223, 264, 263
 58, 59, 60, 101, 100, 223, 224, 265, 264
 59, 60, 61, 102, 101, 224, 225, 266, 265
 60, 61, 62, 103, 102, 225, 226, 267, 266
 61, 62, 63, 104, 103, 226, 227, 268, 267
 62, 63, 64, 105, 104, 227, 228, 269, 268
 63, 64, 65, 106, 105, 228, 229, 270, 269
 64, 65, 66, 107, 106, 229, 230, 271, 270
 65, 66, 67, 108, 107, 230, 231, 272, 271
 66, 67, 68, 109, 108, 231, 232, 273, 272
 67, 68, 69, 110, 109, 232, 233, 274, 273
 68, 69, 70, 111, 110, 233, 234, 275, 274
 69, 70, 71, 112, 111, 234, 235, 276, 275
 70, 71, 72, 113, 112, 235, 236, 277, 276
 71, 72, 73, 114, 113, 236, 237, 278, 277
 72, 73, 74, 115, 114, 237, 238, 279, 278
 73, 74, 75, 116, 115, 238, 239, 280, 279
 74, 75, 76, 117, 116, 239, 240, 281, 280
 75, 76, 77, 118, 117, 240, 241, 282, 281
 76, 77, 78, 119, 118, 241, 242, 283, 282
 77, 78, 79, 120, 119, 242, 243, 284, 283
 78, 79, 80, 121, 120, 243, 244, 285, 284
 79, 80, 81, 122, 121, 244, 245, 286, 285
 80, 81, 82, 123, 122, 245, 246, 287, 286
 81, 83, 84, 125, 124, 247, 248, 289, 288
 82, 84, 85, 126, 125, 248, 249, 290, 289
 83, 85, 86, 127, 126, 249, 250, 291, 290
 84, 86, 87, 128, 127, 250, 251, 292, 291
 85, 87, 88, 129, 128, 251, 252, 293, 292
 86, 88, 89, 130, 129, 252, 253, 294, 293
 87, 89, 90, 131, 130, 253, 254, 295, 294
 88, 90, 91, 132, 131, 254, 255, 296, 295
 89, 91, 92, 133, 132, 255, 256, 297, 296
 90, 92, 93, 134, 133, 256, 257, 298, 297
 91, 93, 94, 135, 134, 257, 258, 299, 298
 92, 94, 95, 136, 135, 258, 259, 300, 299
 93, 95, 96, 137, 136, 259, 260, 301, 300
 94, 96, 97, 138, 137, 260, 261, 302, 301
 95, 97, 98, 139, 138, 261, 262, 303, 302
 96, 98, 99, 140, 139, 262, 263, 304, 303
 97, 99, 100, 141, 140, 263, 264, 305, 304
 98, 100, 101, 142, 141, 264, 265, 306, 305
 99, 101, 102, 143, 142, 265, 266, 307, 306
 100, 102, 103, 144, 143, 266, 267, 308, 307
 101, 103, 104, 145, 144, 267, 268, 309, 308
 102, 104, 105, 146, 145, 268, 269, 310, 309
 103, 105, 106, 147, 146, 269, 270, 311, 310
 104, 106, 107, 148, 147, 270, 271, 312, 311
 105, 107, 108, 149, 148, 271, 272, 313, 312
 106, 108, 109, 150, 149, 272, 273, 314, 313
 107, 109, 110, 151, 150, 273, 274, 315, 314
 108, 110, 111, 152, 151, 274, 275, 316, 315
 109, 111, 112, 153, 152, 275, 276, 317, 316
 110, 112, 113, 154, 153, 276, 277, 318, 317
 111, 113, 114, 155, 154, 277, 278, 319, 318
 112, 114, 115, 156, 155, 278, 279, 320, 319
 113, 115, 116, 157, 156, 279, 280, 321, 320
 114, 116, 117, 158, 157, 280, 281, 322, 321
 115, 117, 118, 159, 158, 281, 282, 323, 322
 116, 118, 119, 160, 159, 282, 283, 324, 323
 117, 119, 120, 161, 160, 283, 284, 325, 324
 118, 120, 121, 162, 161, 284, 285, 326, 325
 119, 121, 122, 163, 162, 285, 286, 327, 326
 120, 122, 123, 164, 163, 286, 287, 328, 327
*ELEMENT, TYPE=C3D8, ELSET=TOP
 1000001, 329, 330, 371, 370, 493, 494, 535, 534
 1000002, 330, 331, 372, 371, 494, 495, 536, 535
 1000003, 331, 332, 373, 372, 495, 496, 537, 536
 1000004, 332, 333, 374, 373, 496, 497, 538, 537
 1000005, 333, 334, 375, 374, 497, 498, 539, 538
 1000006, 334, 335, 376, 375, 498, 499, 540, 539
 1000007, 335, 336, 377, 376, 499, 500, 541, 540
 1000008, 336, 337, 378, 377, 500, 501, 542, 541
 1000009, 337, 338, 379, 378, 501, 502, 543, 542
 1000010, 338, 339, 380, 379, 502, 503, 544, 543
 1000011, 339, 340, 381, 380, 503, 504, 545, 544
 1000012, 340, 341, 382, 381, 504, 505, 546, 545
 1000013, 341, 342, 383, 382, 505, 506, 547, 546
 1000014, 342, 343, 384, 383, 506, 507, 548, 547
 1000015, 343, 344, 385, 384, 507, 508, 549, 548
 1000016, 344, 345, 386, 385, 508, 509, 550, 549
 1000017, 345, 346, 387, 386, 509, 510, 551, 550
 1000018, 346, 347, 388, 387, 510, 511, 552, 551
 1000019, 347, 348, 389, 388, 511, 512, 553, 552
 1000020, 348, 349, 390, 389, 512, 513, 554, 553
 1000021, 349, 350, 391, 390, 513, 514, 555, 554
 1000022, 350, 351, 392, 391, 514, 515, 556, 555
 1000023, 351, 352, 393, 392, 515, 516, 557, 556
 1000024, 352, 353, 394, 393, 516, 517, 558, 557
 1000025, 353, 354, 395, 394, 517, 518, 559, 558
 1000026, 354, 355, 396, 395, 518, 519, 560, 559
 1000027, 355, 356, 397, 396, 519, 520, 561, 560
 1000028, 356, 357, 398, 397, 520, 521, 562, 561
 1000029, 357, 358, 399, 398, 521, 522, 563, 562
 1000030, 358, 359, 400, 399, 522, 523, 564, 563
 1000031, 359, 360, 401, 400, 523, 524, 565, 564
 1000032, 360, 361, 402, 401, 524, 525, 566, 565
 1000033, 361, 362, 403, 402, 525, 526, 567, 566
 1000034, 362, 363, 404, 403, 526, 527, 568, 567
 1000035, 363, 364, 405, 404, 527, 528, 569, 568
 1000036, 364, 365, 406, 405, 528, 529, 570, 569
 1000037, 365, 366, 407, 406, 529, 530, 571, 570
 1000038, 366, 367, 408, 407, 530, 531, 572, 571
 1000039, 367, 368, 409, 408, 531, 532, 573, 572
 1000040, 368, 369, 410, 409, 532, 533, 574, 573
 1000041, 370, 371, 412, 411, 534, 535, 576, 575
 1000042, 371, 372, 413, 412, 535, 536, 577, 576
 1000043, 372, 373, 414, 413, 536, 537, 578, 577
 1000044, 373, 374, 415, 414, 537, 538, 579, 578
 1000045, 374, 375, 416, 415, 538, 539, 580, 579
 1000046, 375, 376, 417, 416, 539, 540, 581, 580
 1000047, 376, 377, 418, 417, 540, 541, 582, 581
 1000048, 377, 378, 419, 418, 541, 542, 583, 582
 1000049, 378, 379, 420, 419, 542, 543, 584, 583
 1000050, 379, 380, 421, 420, 543, 544, 585, 584
 1000051, 380, 381, 422, 421, 544, 545, 586, 585
 1000052, 381, 382, 423, 422, 545, 546, 587, 586
 1000053, 382, 383, 424, 423, 546, 547, 588, 587
 1000054, 383, 384, 425, 424, 547, 548, 589, 588
 1000055, 384, 385, 426, 425, 548, 549, 590, 589
 1000056, 385, 386, 427, 426, 549, 550, 591, 590
 1000057, 386, 387, 428, 427, 550, 551, 592, 591
 1000058, 387, 388, 429, 428, 551, 552, 593, 592
 1000059, 388, 389, 430, 429, 552, 553, 594, 593
 1000060, 389, 390, 431, 430, 553, 554, 595, 594
 1000061, 390, 391, 432, 431, 554, 555, 596, 595
 1000062, 391, 392, 433, 432, 555, 556, 597, 596
 1000063, 392, 393, 434, 433, 556, 557, 598, 597
 1000064, 393, 394, 435, 434, 557, 558, 599, 598
 1000065, 394, 395, 436, 435, 558, 559, 600, 599
 1000066, 395, 396, 437, 436, 559, 560, 601, 600
 1000067, 396, 397, 438, 437, 560, 561, 602, 601
 1000068, 397, 398, 439, 438, 561, 562, 603, 602
 1000069, 398, 399, 440, 439, 562, 563, 604, 603
 1000070, 399, 400, 441, 440, 563, 564, 605, 604
 1000071, 400, 401, 442, 441, 564, 565, 606, 605
 1000072, 401, 402, 443, 442, 565, 566, 607, 606
 1000073, 402, 403, 444, 443, 566, 567, 608, 607
 1000074, 403, 404, 445, 444, 567, 568, 609, 608
 1000075, 404, 405, 446, 445, 568, 569, 610, 609
 1000076, 405, 406, 447, 446, 569, 570, 611, 610
 1000077, 406, 407, 448, 447, 570, 571, 612, 611
 1000078, 407, 408, 449, 448, 571, 572, 613, 612
 1000079, 408, 409, 450, 449, 572, 573, 614, 613
 1000080, 409, 410, 451, 450, 573, 574, 615, 614
 1000081, 411, 412, 453, 452, 575, 576, 617, 616
 1000082, 412, 413, 454, 453, 576, 577, 618, 617
 1000083, 413, 414, 455, 454, 577, 578, 619, 618
 1000084, 414, 415, 456, 455, 578, 579, 620, 619
 1000085, 415, 416, 457, 456, 579, 580, 621, 620
 1000086, 416, 417, 458, 457, 580, 581, 622, 621
 1000087, 417, 418, 459, 458, 581, 582, 623, 622
 1000088, 418, 419, 460, 459, 582, 583, 624, 623
 1000089, 419, 420, 461, 460, 583, 584, 625, 624
 1000090, 420, 421, 462, 461, 584, 585, 626, 625
 1000091, 421, 422, 463, 462, 585, 586, 627, 626
 1000092, 422, 423, 464, 463, 586, 587, 628, 627
 1000093, 423, 424, 465, 464, 587, 588, 629, 628
 1000094, 424, 425, 466, 465, 588, 589, 630, 629
 1000095, 425, 426, 467, 466, 589, 590, 631, 630
 1000096, 426, 427, 468, 467, 590, 591, 632, 631
 1000097, 427, 428, 469, 468, 591, 592, 633, 632
 1000098, 428, 429, 470, 469, 592, 593, 634, 633
 1000099, 429, 430, 471, 470, 593, 594, 635, 634
 1000100, 430, 431, 472, 471, 594, 595, 636, 635
 1000101, 431, 432, 473, 472, 595, 596, 637, 636
 1000102, 432, 433, 474, 473, 596, 597, 638, 637
 1000103, 433, 434, 475, 474, 597, 598, 639, 638
 1000104, 434, 435, 476, 475, 598, 599, 640, 639
 1000105, 435, 436, 477, 476, 599, 600, 641, 640
 1000106, 436, 437, 478, 477, 600, 601, 642, 641
 1000107, 437, 438, 479, 478, 601, 602, 643, 642
 1000108, 438, 439, 480, 479, 602, 603, 644, 643
 1000109, 439, 440, 481, 480, 603, 604, 645, 644
 1000110, 440, 441, 482, 481, 604, 605, 646, 645
 1000111, 441, 442, 483, 482, 605, 606, 647, 646
 1000112, 442, 443, 484, 483, 606, 607, 648, 647
 1000113, 443, 444, 485, 484, 607, 608, 649, 648
 1000114, 444, 445, 486, 485, 608, 609, 650, 649
 1000115, 445, 446, 487, 486, 609, 610, 651, 650
 1000116, 446, 447, 488, 487, 610, 611, 652, 651
 1000117, 447, 448, 489, 488, 611, 612, 653, 652
 1000118, 448, 449, 490, 489, 612, 613, 654, 653
 1000119, 449, 450, 491, 490, 613, 614, 655, 654
 1000120, 450, 451, 492, 491, 614, 615, 656, 655
*ELEMENT, TYPE=COH3D8, ELSET=COH
 2000001, 175, 176, 217, 216, 339, 340, 381, 380
 2000002, 176, 177, 218, 217, 340, 341, 382, 381
 2000003, 177, 178, 219, 218, 341, 342, 383, 382
 2000004, 178, 179, 220, 219, 342, 343, 384, 383
 2000005, 179, 180, 221, 220, 343, 344, 385, 384
 2000006, 180, 181, 222, 221, 344, 345, 386, 385
 2000007, 181, 182, 223, 222, 345, 346, 387, 386
 2000008, 182, 183, 224, 223, 346, 347, 388, 387
 2000009, 183, 184, 225, 224, 347, 348, 389, 388
 2000010, 184, 185, 226, 225, 348, 349, 390, 389
 2000011, 185, 186, 227, 226, 349, 350, 391, 390
 2000012, 186, 187, 228, 227, 350, 351, 392, 391
 2000013, 187, 188, 229, 228, 351, 352, 393, 392
 2000014, 188, 189, 230, 229, 352, 353, 394, 393
 2000015, 189, 190, 231, 230, 353, 354, 395, 394
 2000016, 190, 191, 232, 231, 354, 355, 396, 395
 2000017, 191, 192, 233, 232, 355, 356, 397, 396
 2000018, 192, 193, 234, 233, 356, 357, 398, 397
 2000019, 193, 194, 235, 234, 357, 358, 399, 398
 2000020, 194, 195, 236, 235, 358, 359, 400, 399
 2000021, 195, 196, 237, 236, 359, 360, 401, 400
 2000022, 196, 197, 238, 237, 360, 361, 402, 401
 2000023, 197, 198, 239, 238, 361, 362, 403, 402
 2000024, 198, 199, 240, 239, 362, 363, 404, 403
 2000025, 199, 200, 241, 240, 363, 364, 405, 404
 2000026, 200, 201, 242, 241, 364, 365, 406, 405
 2000027, 201, 202, 243, 242, 365, 366, 407, 406
 2000028, 202, 203, 244, 243, 366, 367, 408, 407
 2000029, 203, 204, 245, 244, 367, 368, 409, 408
 2000030, 204, 205, 246, 245, 368, 369, 410, 409
 2000031, 216, 217, 258, 257, 380, 381, 422, 421
 2000032, 217, 218, 259, 258, 381, 382, 423, 422
 2000033, 218, 219, 260, 259, 382, 383, 424, 423
 2000034, 219, 220, 261, 260, 383, 384, 425, 424
 2000035, 220, 221, 262, 261, 384, 385, 426, 425
 2000036, 221, 222, 263, 262, 385, 386, 427, 426
 2000037, 222, 223, 264, 263, 386, 387, 428, 427
 2000038, 223, 224, 265, 264, 387, 388, 429, 428
 2000039, 224, 225, 266, 265, 388, 389, 430, 429
 2000040, 225, 226, 267, 266, 389, 390, 431, 430
 2000041, 226, 227, 268, 267, 390, 391, 432, 431
 2000042, 227, 228, 269, 268, 391, 392, 433, 432
 2000043, 228, 229, 270, 269, 392, 393, 434, 433
 2000044, 229, 230, 271, 270, 393, 394, 435, 434
 2000045, 230, 231, 272, 271, 394, 395, 436, 435
 2000046, 231, 232, 273, 272, 395, 396, 437, 436
 2000047, 232, 233, 274, 273, 396, 397, 438, 437
 2000048, 233, 234, 275, 274, 397, 398, 439, 438
 2000049, 234, 235, 276, 275, 398, 399, 440, 439
 2000050, 235, 236, 277, 276, 399, 400, 441, 440
 2000051, 236, 237, 278, 277, 400, 401, 442, 441
 2000052, 237, 238, 279, 278, 401, 402, 443, 442
 2000053, 238, 239, 280, 279, 402, 403, 444, 443
 2000054, 239, 240, 281, 280, 403, 404, 445, 444
 2000055, 240, 241, 282, 281, 404, 405, 446, 445
 2000056, 241, 242, 283, 282, 405, 406, 447, 446
 2000057, 242, 243, 284, 283, 406, 407, 448, 447
 2000058, 243, 244, 285, 284, 407, 408, 449, 448
 2000059, 244, 245, 286, 285, 408, 409, 450, 449
 2000060, 245, 246, 287, 286, 409, 410, 451, 450
 2000061, 257, 258, 299, 298, 421, 422, 463, 462
 2000062, 258, 259, 300, 299, 422, 423, 464, 463
 2000063, 259, 260, 301, 300, 423, 424, 465, 464
 2000064, 260, 261, 302, 301, 424, 425, 466, 465
 2000065, 261, 262, 303, 302, 425, 426, 467, 466
 2000066, 262, 263, 304, 303, 426, 427, 468, 467
 2000067, 263, 264, 305, 304, 427, 428, 469, 468
 2000068, 264, 265, 306, 305, 428, 429, 470, 469
 2000069, 265, 266, 307, 306, 429, 430, 471, 470
 2000070, 266, 267, 308, 307, 430, 431, 472, 471
 2000071, 267, 268, 309, 308, 431, 432, 473, 472
 2000072, 268, 269, 310, 309, 432, 433, 474, 473
 2000073, 269, 270, 311, 310, 433, 434, 475, 474
 2000074, 270, 271, 312, 311, 434, 435, 476, 475
 2000075, 271, 272, 313, 312, 435, 436, 477, 476
 2000076, 272, 273, 314, 313, 436, 437, 478, 477
 2000077, 273, 274, 315, 314, 437, 438, 479, 478
 2000078, 274, 275, 316, 315, 438, 439, 480, 479
 2000079, 275, 276, 317, 316, 439, 440, 481, 480
 2000080, 276, 277, 318, 317, 440, 441, 482, 481
 2000081, 277, 278, 319, 318, 441, 442, 483, 482
 2000082, 278, 279, 320, 319, 442, 443, 484, 483
 2000083, 279, 280, 321, 320, 443, 444, 485, 484
 2000084, 280, 281, 322, 321, 444, 445, 486, 485
 2000085, 281, 282, 323, 322, 445, 446, 487, 486
 2000086, 282, 283, 324, 323, 446, 447, 488, 487
 2000087, 283, 284, 325, 324, 447, 448, 489, 488
 2000088, 284, 285, 326, 325, 448, 449, 490, 489
 2000089, 285, 286, 327, 326, 449, 450, 491, 490
 2000090, 286, 287, 328, 327, 450, 451, 492, 491
**
*SOLID SECTION, ELSET=BOT, MATERIAL=PLY
*SOLID SECTION, ELSET=TOP, MATERIAL=PLY
*SECTION CONTROLS, NAME=COHVISC, VISCOSITY=1.0e-5
*COHESIVE SECTION, ELSET=COH, MATERIAL=INTERFACE, RESPONSE=TRACTION SEPARATION, THICKNESS=SPECIFIED, CONTROLS=COHVISC
 1.0
**
*MATERIAL, NAME=PLY
*ELASTIC
 60.0e9, 0.30
*MATERIAL, NAME=INTERFACE
*ELASTIC, TYPE=TRACTION
 1.0e14, 1.0e14, 1.0e14
*DAMAGE INITIATION, CRITERION=QUADS
 12.0e6, 18.0e6, 18.0e6
*DAMAGE EVOLUTION, TYPE=ENERGY, MIXED MODE BEHAVIOR=BK, POWER=1.6
 200.0, 600.0, 600.0
**
*NSET, NSET=CLAMP
 41, 82, 123, 164, 205, 246, 287, 328
 369, 410, 451, 492, 533, 574, 615, 656
*NSET, NSET=TIP
 329, 370, 411, 452, 493, 534, 575, 616
*BOUNDARY
 CLAMP, 1, 3, 0.0
**
*STEP, NLGEOM=YES, INC=1000
*STATIC
 0.002, 1.0, 1.0e-8, 0.02
*BOUNDARY
 TIP, 1, 1, 3.000000e-04
 TIP, 2, 2, 0.0
 TIP, 3, 3, 5.196152e-04
*CONTROLS, ANALYSIS=DISCONTINUOUS
*OUTPUT, FIELD
*ELEMENT OUTPUT, ELSET=COH
 SDEG, STATUS
*NODE OUTPUT
 U, RF
*END STEP
